! SYNTHESISED, NOT MEASURED. Generated by apps/s4p_gen.c.
! Physical model, not a capture of real hardware. Replace this
! file with a VNA sweep or a field-solver export when you have one;
! the reader in src/touchstone.c takes either without changes.
!
! Coupled lane pair, chained ports:
!   1 victim near   2 victim far   3 aggressor near   4 aggressor far
! S21 through, S23 FEXT, S11 return loss.
!
! insertion loss   14.0 dB at 50 GHz (Nyquist)
! skin / dielectric 1.0889 dB/sqrt(GHz) / 0.1260 dB/GHz
! flight time      420 ps end to end
! discontinuities  rho 0.13 and 0.10, 55 ps apart
!                  -> echo at 11.0 UI after the cursor
! via stub         quarter-wave notch at 62 GHz
! FEXT             -38 dB at Nyquist, rising with frequency
#  GHZ  S  RI  R  50
0.050000 +2.282513e-01 -3.396674e-03 +9.477640e-01 -1.268340e-01 +1.239269e-04 -7.786659e-07 +1.609343e-06 +1.212603e-05
         +9.477640e-01 -1.268340e-01 +2.282513e-01 -3.396674e-03 +1.609343e-06 +1.212603e-05 +1.239269e-04 -7.786659e-07
         +1.239269e-04 -7.786659e-07 +1.609343e-06 +1.212603e-05 +2.282513e-01 -3.396674e-03 +9.477640e-01 -1.268340e-01
         +1.609343e-06 +1.212603e-05 +1.239269e-04 -7.786659e-07 +9.477640e-01 -1.268340e-01 +2.282513e-01 -3.396674e-03
0.149938 +2.277826e-01 -1.016958e-02 +8.619310e-01 -3.633357e-01 +3.670108e-04 -6.915927e-06 +1.383121e-05 +3.311238e-05
         +8.619310e-01 -3.633357e-01 +2.277826e-01 -1.016958e-02 +1.383121e-05 +3.311238e-05 +3.670108e-04 -6.915927e-06
         +3.670108e-04 -6.915927e-06 +1.383121e-05 +3.311238e-05 +2.277826e-01 -1.016958e-02 +8.619310e-01 -3.633357e-01
         +1.383121e-05 +3.311238e-05 +3.670108e-04 -6.915927e-06 +8.619310e-01 -3.633357e-01 +2.277826e-01 -1.016958e-02
0.249875 +2.268476e-01 -1.689398e-02 +7.246970e-01 -5.680667e-01 +6.040339e-04 -1.897303e-05 +3.607212e-05 +4.653558e-05
         +7.246970e-01 -5.680667e-01 +2.268476e-01 -1.689398e-02 +3.607212e-05 +4.653558e-05 +6.040339e-04 -1.897303e-05
         +6.040339e-04 -1.897303e-05 +3.607212e-05 +4.653558e-05 +2.268476e-01 -1.689398e-02 +7.246970e-01 -5.680667e-01
         +3.607212e-05 +4.653558e-05 +6.040339e-04 -1.897303e-05 +7.246970e-01 -5.680667e-01 +2.268476e-01 -1.689398e-02
0.349813 +2.254507e-01 -2.353782e-02 +5.427957e-01 -7.288973e-01 +8.351007e-04 -3.673364e-05 +6.489141e-05 +4.909186e-05
         +5.427957e-01 -7.288973e-01 +2.254507e-01 -2.353782e-02 +6.489141e-05 +4.909186e-05 +8.351007e-04 -3.673364e-05
         +8.351007e-04 -3.673364e-05 +6.489141e-05 +4.909186e-05 +2.254507e-01 -2.353782e-02 +5.427957e-01 -7.288973e-01
         +6.489141e-05 +4.909186e-05 +8.351007e-04 -3.673364e-05 +5.427957e-01 -7.288973e-01 +2.254507e-01 -2.353782e-02
0.449750 +2.235985e-01 -3.006941e-02 +3.283678e-01 -8.361198e-01 +1.060311e-03 -5.998976e-05 +9.590167e-05 +3.874251e-05
         +3.283678e-01 -8.361198e-01 +2.235985e-01 -3.006941e-02 +9.590167e-05 +3.874251e-05 +1.060311e-03 -5.998976e-05
         +1.060311e-03 -5.998976e-05 +9.590167e-05 +3.874251e-05 +2.235985e-01 -3.006941e-02 +3.283678e-01 -8.361198e-01
         +9.590167e-05 +3.874251e-05 +1.060311e-03 -5.998976e-05 +3.283678e-01 -8.361198e-01 +2.235985e-01 -3.006941e-02
0.549687 +2.213001e-01 -3.645759e-02 +9.613355e-02 -8.835647e-01 +1.279760e-03 -8.854131e-05 +1.242138e-04 +1.500348e-05
         +9.613355e-02 -8.835647e-01 +2.213001e-01 -3.645759e-02 +1.242138e-04 +1.500348e-05 +1.279760e-03 -8.854131e-05
         +1.279760e-03 -8.854131e-05 +1.242138e-04 +1.500348e-05 +2.213001e-01 -3.645759e-02 +9.613355e-02 -8.835647e-01
         +1.242138e-04 +1.500348e-05 +1.279760e-03 -8.854131e-05 +9.613355e-02 -8.835647e-01 +2.213001e-01 -3.645759e-02
0.649625 +2.185662e-01 -4.267190e-02 -1.379813e-01 -8.691153e-01 +1.493540e-03 -1.221956e-04 +1.449531e-04 -2.094824e-05
         -1.379813e-01 -8.691153e-01 +2.185662e-01 -4.267190e-02 +1.449531e-04 -2.094824e-05 +1.493540e-03 -1.221956e-04
         +1.493540e-03 -1.221956e-04 +1.449531e-04 -2.094824e-05 +2.185662e-01 -4.267190e-02 -1.379813e-01 -8.691153e-01
         +1.449531e-04 -2.094824e-05 +1.493540e-03 -1.221956e-04 -1.379813e-01 -8.691153e-01 +2.185662e-01 -4.267190e-02
0.749563 +2.154099e-01 -4.868272e-02 -3.580559e-01 -7.948583e-01 +1.701736e-03 -1.607670e-04 +1.537871e-04 -6.633892e-05
         -3.580559e-01 -7.948583e-01 +2.154099e-01 -4.868272e-02 +1.537871e-04 -6.633892e-05 +1.701736e-03 -1.607670e-04
         +1.701736e-03 -1.607670e-04 +1.537871e-04 -6.633892e-05 +2.154099e-01 -4.868272e-02 -3.580559e-01 -7.948583e-01
         +1.537871e-04 -6.633892e-05 +1.701736e-03 -1.607670e-04 -3.580559e-01 -7.948583e-01 +2.154099e-01 -4.868272e-02
0.849500 +2.118463e-01 -5.446136e-02 -5.493102e-01 -6.669131e-01 +1.904432e-03 -2.040764e-04 +1.474137e-04 -1.170247e-04
         -5.493102e-01 -6.669131e-01 +2.118463e-01 -5.446136e-02 +1.474137e-04 -1.170247e-04 +1.904432e-03 -2.040764e-04
         +1.904432e-03 -2.040764e-04 +1.474137e-04 -1.170247e-04 +2.118463e-01 -5.446136e-02 -5.493102e-01 -6.669131e-01
         +1.474137e-04 -1.170247e-04 +1.904432e-03 -2.040764e-04 -5.493102e-01 -6.669131e-01 +2.118463e-01 -5.446136e-02
0.949438 +2.078924e-01 -5.998028e-02 -6.991258e-01 -4.949731e-01 +2.101707e-03 -2.519510e-04 +1.239613e-04 -1.678606e-04
         -6.991258e-01 -4.949731e-01 +2.078924e-01 -5.998028e-02 +1.239613e-04 -1.678606e-04 +2.101707e-03 -2.519510e-04
         +2.101707e-03 -2.519510e-04 +1.239613e-04 -1.678606e-04 +2.078924e-01 -5.998028e-02 -6.991258e-01 -4.949731e-01
         +1.239613e-04 -1.678606e-04 +2.101707e-03 -2.519510e-04 -6.991258e-01 -4.949731e-01 +2.078924e-01 -5.998028e-02
1.049375 +2.035670e-01 -6.521315e-02 -7.978969e-01 -2.915991e-01 +2.293639e-03 -3.042239e-04 +8.326293e-05 -2.131790e-04
         -7.978969e-01 -2.915991e-01 +2.035670e-01 -6.521315e-02 +8.326293e-05 -2.131790e-04 +2.293639e-03 -3.042239e-04
         +2.293639e-03 -3.042239e-04 +8.326293e-05 -2.131790e-04 +2.035670e-01 -6.521315e-02 -7.978969e-01 -2.915991e-01
         +8.326293e-05 -2.131790e-04 +2.293639e-03 -3.042239e-04 -7.978969e-01 -2.915991e-01 +2.035670e-01 -6.521315e-02
1.149313 +1.988908e-01 -7.013501e-02 -8.396564e-01 -7.131989e-02 +2.480301e-03 -3.607338e-04 +2.697403e-05 -2.473371e-04
         -8.396564e-01 -7.131989e-02 +1.988908e-01 -7.013501e-02 +2.697403e-05 -2.473371e-04 +2.480301e-03 -3.607338e-04
         +2.480301e-03 -3.607338e-04 +2.697403e-05 -2.473371e-04 +1.988908e-01 -7.013501e-02 -8.396564e-01 -7.131989e-02
         +2.697403e-05 -2.473371e-04 +2.480301e-03 -3.607338e-04 -8.396564e-01 -7.131989e-02 +1.988908e-01 -7.013501e-02
1.249250 +1.938860e-01 -7.472240e-02 -8.224413e-01 +1.503924e-01 +2.661762e-03 -4.213246e-04 -4.147858e-05 -2.652826e-04
         -8.224413e-01 +1.503924e-01 +1.938860e-01 -7.472240e-02 -4.147858e-05 -2.652826e-04 +2.661762e-03 -4.213246e-04
         +2.661762e-03 -4.213246e-04 -4.147858e-05 -2.652826e-04 +1.938860e-01 -7.472240e-02 -8.224413e-01 +1.503924e-01
         -4.147858e-05 -2.652826e-04 +2.661762e-03 -4.213246e-04 -8.224413e-01 +1.503924e-01 +1.938860e-01 -7.472240e-02
1.349188 +1.885765e-01 -7.895344e-02 -7.483737e-01 +3.582004e-01 +2.838091e-03 -4.858453e-04 -1.171182e-04 -2.630869e-04
         -7.483737e-01 +3.582004e-01 +1.885765e-01 -7.895344e-02 -1.171182e-04 -2.630869e-04 +2.838091e-03 -4.858453e-04
         +2.838091e-03 -4.858453e-04 -1.171182e-04 -2.630869e-04 +1.885765e-01 -7.895344e-02 -7.483737e-01 +3.582004e-01
         -1.171182e-04 -2.630869e-04 +2.838091e-03 -4.858453e-04 -7.483737e-01 +3.582004e-01 +1.885765e-01 -7.895344e-02
1.449125 +1.829877e-01 -8.280795e-02 -6.234578e-01 +5.379556e-01 +3.009354e-03 -5.541496e-04 -1.937943e-04 -2.383984e-04
         -6.234578e-01 +5.379556e-01 +1.829877e-01 -8.280795e-02 -1.937943e-04 -2.383984e-04 +3.009354e-03 -5.541496e-04
         +3.009354e-03 -5.541496e-04 -1.937943e-04 -2.383984e-04 +1.829877e-01 -8.280795e-02 -6.234578e-01 +5.379556e-01
         -1.937943e-04 -2.383984e-04 +3.009354e-03 -5.541496e-04 -6.234578e-01 +5.379556e-01 +1.829877e-01 -8.280795e-02
1.549063 +1.771462e-01 -8.626754e-02 -4.571117e-01 +6.776560e-01 +3.175612e-03 -6.260958e-04 -2.646847e-04 -1.907685e-04
         -4.571117e-01 +6.776560e-01 +1.771462e-01 -8.626754e-02 -2.646847e-04 -1.907685e-04 +3.175612e-03 -6.260958e-04
         +3.175612e-03 -6.260958e-04 -2.646847e-04 -1.907685e-04 +1.771462e-01 -8.626754e-02 -4.571117e-01 +6.776560e-01
         -2.646847e-04 -1.907685e-04 +3.175612e-03 -6.260958e-04 -4.571117e-01 +6.776560e-01 +1.771462e-01 -8.626754e-02
1.649000 +1.710799e-01 -8.931573e-02 -2.614687e-01 +7.682415e-01 +3.336926e-03 -7.015463e-04 -3.228826e-04 -1.218217e-04
         -2.614687e-01 +7.682415e-01 +1.710799e-01 -8.931573e-02 -3.228826e-04 -1.218217e-04 +3.336926e-03 -7.015463e-04
         +3.336926e-03 -7.015463e-04 -3.228826e-04 -1.218217e-04 +1.710799e-01 -8.931573e-02 -2.614687e-01 +7.682415e-01
         -3.228826e-04 -1.218217e-04 +3.336926e-03 -7.015463e-04 -2.614687e-01 +7.682415e-01 +1.710799e-01 -8.931573e-02
1.748938 +1.648176e-01 -9.193796e-02 -5.050174e-02 +8.041757e-01 +3.493355e-03 -7.803677e-04 -3.620199e-04 -3.524535e-05
         -5.050174e-02 +8.041757e-01 +1.648176e-01 -9.193796e-02 -3.620199e-04 -3.524535e-05 +3.493355e-03 -7.803677e-04
         +3.493355e-03 -7.803677e-04 -3.620199e-04 -3.524535e-05 +1.648176e-01 -9.193796e-02 -5.050174e-02 +8.041757e-01
         -3.620199e-04 -3.524535e-05 +3.493355e-03 -7.803677e-04 -5.050174e-02 +8.041757e-01 +1.648176e-01 -9.193796e-02
1.848875 +1.583893e-01 -9.412174e-02 +1.609663e-01 +7.837751e-01 +3.644956e-03 -8.624304e-04 -3.768731e-04 +6.340440e-05
         +1.609663e-01 +7.837751e-01 +1.583893e-01 -9.412174e-02 -3.768731e-04 +6.340440e-05 +3.644956e-03 -8.624304e-04
         +3.644956e-03 -8.624304e-04 -3.768731e-04 +6.340440e-05 +1.583893e-01 -9.412174e-02 +1.609663e-01 +7.837751e-01
         -3.768731e-04 +6.340440e-05 +3.644956e-03 -8.624304e-04 +1.609663e-01 +7.837751e-01 +1.583893e-01 -9.412174e-02
1.948813 +1.518256e-01 -9.585665e-02 +3.582969e-01 +7.092684e-01 +3.791783e-03 -9.476086e-04 -3.638990e-04 +1.670706e-04
         +3.582969e-01 +7.092684e-01 +1.518256e-01 -9.585665e-02 -3.638990e-04 +1.670706e-04 +3.791783e-03 -9.476086e-04
         +3.791783e-03 -9.476086e-04 -3.638990e-04 +1.670706e-04 +1.518256e-01 -9.585665e-02 +3.582969e-01 +7.092684e-01
         -3.638990e-04 +1.670706e-04 +3.791783e-03 -9.476086e-04 +3.582969e-01 +7.092684e-01 +1.518256e-01 -9.585665e-02
2.048750 +1.451579e-01 -9.713442e-02 +5.280411e-01 +5.865850e-01 +3.933888e-03 -1.035780e-03 -3.216500e-04 +2.677130e-04
         +5.280411e-01 +5.865850e-01 +1.451579e-01 -9.713442e-02 -3.216500e-04 +2.677130e-04 +3.933888e-03 -1.035780e-03
         +3.933888e-03 -1.035780e-03 -3.216500e-04 +2.677130e-04 +1.451579e-01 -9.713442e-02 +5.280411e-01 +5.865850e-01
         -3.216500e-04 +2.677130e-04 +3.933888e-03 -1.035780e-03 +5.280411e-01 +5.865850e-01 +1.451579e-01 -9.713442e-02
2.148687 +1.384178e-01 -9.794895e-02 +6.588489e-01 +4.248920e-01 +4.071325e-03 -1.126825e-03 -2.510304e-04 +3.569358e-04
         +6.588489e-01 +4.248920e-01 +1.384178e-01 -9.794895e-02 -2.510304e-04 +3.569358e-04 +4.071325e-03 -1.126825e-03
         +4.071325e-03 -1.126825e-03 -2.510304e-04 +3.569358e-04 +1.384178e-01 -9.794895e-02 +6.588489e-01 +4.248920e-01
         -2.510304e-04 +3.569358e-04 +4.071325e-03 -1.126825e-03 +6.588489e-01 +4.248920e-01 +1.384178e-01 -9.794895e-02
2.248625 +1.316376e-01 -9.829636e-02 +7.422193e-01 +2.359152e-01 +4.204141e-03 -1.220628e-03 -1.553642e-04 +4.266766e-04
         +7.422193e-01 +2.359152e-01 +1.316376e-01 -9.829636e-02 -1.553642e-04 +4.266766e-04 +4.204141e-03 -1.220628e-03
         +4.204141e-03 -1.220628e-03 -1.553642e-04 +4.266766e-04 +1.316376e-01 -9.829636e-02 +7.422193e-01 +2.359152e-01
         -1.553642e-04 +4.266766e-04 +4.204141e-03 -1.220628e-03 +7.422193e-01 +2.359152e-01 +1.316376e-01 -9.829636e-02
2.348562 +1.248496e-01 -9.817499e-02 +7.730437e-01 +3.309459e-02 +4.332387e-03 -1.317077e-03 -4.026292e-05 +4.699020e-04
         +7.730437e-01 +3.309459e-02 +1.248496e-01 -9.817499e-02 -4.026292e-05 +4.699020e-04 +4.332387e-03 -1.317077e-03
         +4.332387e-03 -1.317077e-03 -4.026292e-05 +4.699020e-04 +1.248496e-01 -9.817499e-02 +7.730437e-01 +3.309459e-02
         -4.026292e-05 +4.699020e-04 +4.332387e-03 -1.317077e-03 +7.730437e-01 +3.309459e-02 +1.248496e-01 -9.817499e-02
2.448500 +1.180861e-01 -9.758543e-02 +7.499078e-01 -1.693654e-01 +4.456108e-03 -1.416061e-03 +8.670499e-05 +4.812499e-04
         +7.499078e-01 -1.693654e-01 +1.180861e-01 -9.758543e-02 +8.670499e-05 +4.812499e-04 +4.456108e-03 -1.416061e-03
         +4.456108e-03 -1.416061e-03 +8.670499e-05 +4.812499e-04 +1.180861e-01 -9.758543e-02 +7.499078e-01 -1.693654e-01
         +8.670499e-05 +4.812499e-04 +4.456108e-03 -1.416061e-03 +7.499078e-01 -1.693654e-01 +1.180861e-01 -9.758543e-02
2.548437 +1.113795e-01 -9.653048e-02 +6.751357e-01 -3.574836e-01 +4.575350e-03 -1.517472e-03 +2.165223e-04 +4.575654e-04
         +6.751357e-01 -3.574836e-01 +1.113795e-01 -9.653048e-02 +2.165223e-04 +4.575654e-04 +4.575350e-03 -1.517472e-03
         +4.575350e-03 -1.517472e-03 +2.165223e-04 +4.575654e-04 +1.113795e-01 -9.653048e-02 +6.751357e-01 -3.574836e-01
         +2.165223e-04 +4.575654e-04 +4.575350e-03 -1.517472e-03 +6.751357e-01 -3.574836e-01 +1.113795e-01 -9.653048e-02
2.648375 +1.047617e-01 -9.501517e-02 +5.545758e-01 -5.184596e-01 +4.690159e-03 -1.621208e-03 +3.393743e-04 +3.982801e-04
         +5.545758e-01 -5.184596e-01 +1.047617e-01 -9.501517e-02 +3.393743e-04 +3.982801e-04 +4.690159e-03 -1.621208e-03
         +4.690159e-03 -1.621208e-03 +3.393743e-04 +3.982801e-04 +1.047617e-01 -9.501517e-02 +5.545758e-01 -5.184596e-01
         +3.393743e-04 +3.982801e-04 +4.690159e-03 -1.621208e-03 +5.545758e-01 -5.184596e-01 +1.047617e-01 -9.501517e-02
2.748312 +9.826418e-02 -9.304673e-02 +3.971499e-01 -6.415368e-01 +4.800578e-03 -1.727165e-03 +4.453958e-04 +3.055990e-04
         +3.971499e-01 -6.415368e-01 +9.826418e-02 -9.304673e-02 +4.453958e-04 +3.055990e-04 +4.800578e-03 -1.727165e-03
         +4.800578e-03 -1.727165e-03 +4.453958e-04 +3.055990e-04 +9.826418e-02 -9.304673e-02 +3.971499e-01 -6.415368e-01
         +4.453958e-04 +3.055990e-04 +4.800578e-03 -1.727165e-03 +3.971499e-01 -6.415368e-01 +9.826418e-02 -9.304673e-02
2.848250 +9.191805e-02 -9.063455e-02 +2.141964e-01 -7.187112e-01 +4.906650e-03 -1.835244e-03 +5.254565e-04 +1.844715e-04
         +2.141964e-01 -7.187112e-01 +9.191805e-02 -9.063455e-02 +5.254565e-04 +1.844715e-04 +4.906650e-03 -1.835244e-03
         +4.906650e-03 -1.835244e-03 +5.254565e-04 +1.844715e-04 +9.191805e-02 -9.063455e-02 +2.141964e-01 -7.187112e-01
         +5.254565e-04 +1.844715e-04 +4.906650e-03 -1.835244e-03 +2.141964e-01 -7.187112e-01 +9.191805e-02 -9.063455e-02
2.948187 +8.575354e-02 -8.779013e-02 +1.865979e-02 -7.452433e-01 +5.008416e-03 -1.945347e-03 +5.719225e-04 +4.234109e-05
         +1.865979e-02 -7.452433e-01 +8.575354e-02 -8.779013e-02 +5.719225e-04 +4.234109e-05 +5.008416e-03 -1.945347e-03
         +5.008416e-03 -1.945347e-03 +5.719225e-04 +4.234109e-05 +8.575354e-02 -8.779013e-02 +1.865979e-02 -7.452433e-01
         +5.719225e-04 +4.234109e-05 +5.008416e-03 -1.945347e-03 +1.865979e-02 -7.452433e-01 +8.575354e-02 -8.779013e-02
3.048125 +7.980004e-02 -8.452704e-02 -1.758198e-01 -7.199378e-01 +5.105916e-03 -2.057380e-03 +5.793331e-04 -1.113156e-04
         -1.758198e-01 -7.199378e-01 +7.980004e-02 -8.452704e-02 +5.793331e-04 -1.113156e-04 +5.105916e-03 -2.057380e-03
         +5.105916e-03 -2.057380e-03 +5.793331e-04 -1.113156e-04 +7.980004e-02 -8.452704e-02 -1.758198e-01 -7.199378e-01
         +5.793331e-04 -1.113156e-04 +5.105916e-03 -2.057380e-03 -1.758198e-01 -7.199378e-01 +7.980004e-02 -8.452704e-02
3.148062 +7.408595e-02 -8.086084e-02 -3.558503e-01 -6.451778e-01 +5.199192e-03 -2.171250e-03 +5.449342e-04 -2.656297e-04
         -3.558503e-01 -6.451778e-01 +7.408595e-02 -8.086084e-02 +5.449342e-04 -2.656297e-04 +5.199192e-03 -2.171250e-03
         +5.199192e-03 -2.171250e-03 +5.449342e-04 -2.656297e-04 +7.408595e-02 -8.086084e-02 -3.558503e-01 -6.451778e-01
         +5.449342e-04 -2.656297e-04 +5.199192e-03 -2.171250e-03 -3.558503e-01 -6.451778e-01 +7.408595e-02 -8.086084e-02
3.248000 +6.863851e-02 -7.680901e-02 -5.092022e-01 -5.267142e-01 +5.288281e-03 -2.286866e-03 +4.690222e-04 -4.091195e-04
         -5.092022e-01 -5.267142e-01 +6.863851e-02 -7.680901e-02 +4.690222e-04 -4.091195e-04 +5.288281e-03 -2.286866e-03
         +5.288281e-03 -2.286866e-03 +4.690222e-04 -4.091195e-04 +6.863851e-02 -7.680901e-02 -5.092022e-01 -5.267142e-01
         +4.690222e-04 -4.091195e-04 +5.288281e-03 -2.286866e-03 -5.092022e-01 -5.267142e-01 +6.863851e-02 -7.680901e-02
3.347937 +6.348370e-02 -7.239087e-02 -6.256302e-01 -3.732277e-01 +5.373223e-03 -2.404138e-03 +3.550623e-04 -5.305490e-04
         -6.256302e-01 -3.732277e-01 +6.348370e-02 -7.239087e-02 +3.550623e-04 -5.305490e-04 +5.373223e-03 -2.404138e-03
         +5.373223e-03 -2.404138e-03 +3.550623e-04 -5.305490e-04 +6.348370e-02 -7.239087e-02 -6.256302e-01 -3.732277e-01
         +3.550623e-04 -5.305490e-04 +5.373223e-03 -2.404138e-03 -6.256302e-01 -3.732277e-01 +6.348370e-02 -7.239087e-02
3.447875 +5.864612e-02 -6.762751e-02 -6.975493e-01 -1.956977e-01 +5.454055e-03 -2.522981e-03 +2.095665e-04 -6.198037e-04
         -6.975493e-01 -1.956977e-01 +5.864612e-02 -6.762751e-02 +2.095665e-04 -6.198037e-04 +5.454055e-03 -2.522981e-03
         +5.454055e-03 -2.522981e-03 +2.095665e-04 -6.198037e-04 +5.864612e-02 -6.762751e-02 -6.975493e-01 -1.956977e-01
         +2.095665e-04 -6.198037e-04 +5.454055e-03 -2.522981e-03 -6.975493e-01 -1.956977e-01 +5.864612e-02 -6.762751e-02
3.547813 +5.414882e-02 -6.254162e-02 -7.205201e-01 -6.622013e-03 +5.530814e-03 -2.643308e-03 +4.172922e-05 -6.687144e-04
         -7.205201e-01 -6.622013e-03 +5.414882e-02 -6.254162e-02 +4.172922e-05 -6.687144e-04 +5.530814e-03 -2.643308e-03
         +5.530814e-03 -2.643308e-03 +4.172922e-05 -6.687144e-04 +5.414882e-02 -6.254162e-02 -7.205201e-01 -6.622013e-03
         +4.172922e-05 -6.687144e-04 +5.530814e-03 -2.643308e-03 -7.205201e-01 -6.622013e-03 +5.414882e-02 -6.254162e-02
3.647750 +5.001326e-02 -5.715747e-02 -6.935137e-01 +1.808562e-01 +5.603537e-03 -2.765037e-03 -1.371578e-04 -6.717633e-04
         -6.935137e-01 +1.808562e-01 +5.001326e-02 -5.715747e-02 -1.371578e-04 -6.717633e-04 +5.603537e-03 -2.765037e-03
         +5.603537e-03 -2.765037e-03 -1.371578e-04 -6.717633e-04 +5.001326e-02 -5.715747e-02 -6.935137e-01 +1.808562e-01
         -1.371578e-04 -6.717633e-04 +5.603537e-03 -2.765037e-03 -6.935137e-01 +1.808562e-01 +5.001326e-02 -5.715747e-02
3.747688 +4.625915e-02 -5.150074e-02 -6.189409e-01 +3.538545e-01 +5.672260e-03 -2.888085e-03 -3.144739e-04 -6.266138e-04
         -6.189409e-01 +3.538545e-01 +4.625915e-02 -5.150074e-02 -3.144739e-04 -6.266138e-04 +5.672260e-03 -2.888085e-03
         +5.672260e-03 -2.888085e-03 -3.144739e-04 -6.266138e-04 +4.625915e-02 -5.150074e-02 -6.189409e-01 +3.538545e-01
         -3.144739e-04 -6.266138e-04 +5.672260e-03 -2.888085e-03 -6.189409e-01 +3.538545e-01 +4.625915e-02 -5.150074e-02
3.847625 +4.290441e-02 -4.559840e-02 -5.024473e-01 +5.006281e-01 +5.737019e-03 -3.012373e-03 -4.771689e-04 -5.344179e-04
         -5.024473e-01 +5.006281e-01 +4.290441e-02 -4.559840e-02 -4.771689e-04 -5.344179e-04 +5.737019e-03 -3.012373e-03
         +5.737019e-03 -3.012373e-03 -4.771689e-04 -5.344179e-04 +4.290441e-02 -4.559840e-02 -5.024473e-01 +5.006281e-01
         -4.771689e-04 -5.344179e-04 +5.737019e-03 -3.012373e-03 -5.024473e-01 +5.006281e-01 +4.290441e-02 -4.559840e-02
3.947563 +3.996503e-02 -3.947860e-02 -3.524905e-01 +6.113592e-01 +5.797848e-03 -3.137821e-03 -6.127285e-04 -3.998679e-04
         -3.524905e-01 +6.113592e-01 +3.996503e-02 -3.947860e-02 -6.127285e-04 -3.998679e-04 +5.797848e-03 -3.137821e-03
         +5.797848e-03 -3.137821e-03 -6.127285e-04 -3.998679e-04 +3.996503e-02 -3.947860e-02 -3.524905e-01 +6.113592e-01
         -6.127285e-04 -3.998679e-04 +5.797848e-03 -3.137821e-03 -3.524905e-01 +6.113592e-01 +3.996503e-02 -3.947860e-02
4.047500 +3.745503e-02 -3.317053e-02 -1.797313e-01 +6.788063e-01 +5.854783e-03 -3.264354e-03 -7.101343e-04 -2.309833e-04
         -1.797313e-01 +6.788063e-01 +3.745503e-02 -3.317053e-02 -7.101343e-04 -2.309833e-04 +5.854783e-03 -3.264354e-03
         +5.854783e-03 -3.264354e-03 -7.101343e-04 -2.309833e-04 +3.745503e-02 -3.317053e-02 -1.797313e-01 +6.788063e-01
         -7.101343e-04 -2.309833e-04 +5.854783e-03 -3.264354e-03 -1.797313e-01 +6.788063e-01 +3.745503e-02 -3.317053e-02
4.147438 +3.538637e-02 -2.670426e-02 +3.718084e-03 +6.987701e-01 +5.907857e-03 -3.391895e-03 -7.607438e-04 -3.863679e-05
         +3.718084e-03 +6.987701e-01 +3.538637e-02 -2.670426e-02 -7.607438e-04 -3.863679e-05 +5.907857e-03 -3.391895e-03
         +5.907857e-03 -3.391895e-03 -7.607438e-04 -3.863679e-05 +3.538637e-02 -2.670426e-02 +3.718084e-03 +6.987701e-01
         -7.607438e-04 -3.863679e-05 +5.907857e-03 -3.391895e-03 +3.718084e-03 +6.987701e-01 +3.538637e-02 -2.670426e-02
4.247375 +3.376893e-02 -2.011064e-02 +1.851363e-01 +6.703486e-01 +5.957105e-03 -3.520371e-03 -7.590236e-04 +1.641497e-04
         +1.851363e-01 +6.703486e-01 +3.376893e-02 -2.011064e-02 -7.590236e-04 +1.641497e-04 +5.957105e-03 -3.520371e-03
         +5.957105e-03 -3.520371e-03 -7.590236e-04 +1.641497e-04 +3.376893e-02 -2.011064e-02 +1.851363e-01 +6.703486e-01
         -7.590236e-04 +1.641497e-04 +5.957105e-03 -3.520371e-03 +1.851363e-01 +6.703486e-01 +3.376893e-02 -2.011064e-02
4.347313 +3.261042e-02 -1.342111e-02 +3.520676e-01 +5.959649e-01 +6.002561e-03 -3.649707e-03 -7.030731e-04 +3.630952e-04
         +3.520676e-01 +5.959649e-01 +3.261042e-02 -1.342111e-02 -7.030731e-04 +3.630952e-04 +6.002561e-03 -3.649707e-03
         +6.002561e-03 -3.649707e-03 -7.030731e-04 +3.630952e-04 +3.261042e-02 -1.342111e-02 +3.520676e-01 +5.959649e-01
         -7.030731e-04 +3.630952e-04 +6.002561e-03 -3.649707e-03 +3.520676e-01 +5.959649e-01 +3.261042e-02 -1.342111e-02
4.447250 +3.191636e-02 -6.667581e-03 +4.931691e-01 +4.811685e-01 +6.044257e-03 -3.779834e-03 -5.948939e-04 +5.436737e-04
         +4.931691e-01 +4.811685e-01 +3.191636e-02 -6.667581e-03 -5.948939e-04 +5.436737e-04 +6.044257e-03 -3.779834e-03
         +6.044257e-03 -3.779834e-03 -5.948939e-04 +5.436737e-04 +3.191636e-02 -6.667581e-03 +4.931691e-01 +4.811685e-01
         -5.948939e-04 +5.436737e-04 +6.044257e-03 -3.779834e-03 +4.931691e-01 +4.811685e-01 +3.191636e-02 -6.667581e-03
4.547187 +3.169007e-02 +1.177490e-04 +5.989750e-01 +3.342271e-01 +6.082226e-03 -3.910681e-03 -4.403767e-04 +6.921791e-04
         +5.989750e-01 +3.342271e-01 +3.169007e-02 +1.177490e-04 -4.403767e-04 +6.921791e-04 +6.082226e-03 -3.910681e-03
         +6.082226e-03 -3.910681e-03 -4.403767e-04 +6.921791e-04 +3.169007e-02 +1.177490e-04 +5.989750e-01 +3.342271e-01
         -4.403767e-04 +6.921791e-04 +6.082226e-03 -3.910681e-03 +5.989750e-01 +3.342271e-01 +3.169007e-02 +1.177490e-04
4.647125 +3.193262e-02 +6.902518e-03 +6.625252e-01 +1.655364e-01 +6.116503e-03 -4.042179e-03 -2.489991e-04 +7.967641e-04
         +6.625252e-01 +1.655364e-01 +3.193262e-02 +6.902518e-03 -2.489991e-04 +7.967641e-04 +6.116503e-03 -4.042179e-03
         +6.116503e-03 -4.042179e-03 -2.489991e-04 +7.967641e-04 +3.193262e-02 +6.902518e-03 +6.625252e-01 +1.655364e-01
         -2.489991e-04 +7.967641e-04 +6.116503e-03 -4.042179e-03 +6.625252e-01 +1.655364e-01 +3.193262e-02 +6.902518e-03
4.747063 +3.264285e-02 +1.365437e-02 +6.798180e-01 -1.310872e-02 +6.147118e-03 -4.174261e-03 -3.324592e-05 +8.483732e-04
         +6.798180e-01 -1.310872e-02 +3.264285e-02 +1.365437e-02 -3.324592e-05 +8.483732e-04 +6.147118e-03 -4.174261e-03
         +6.147118e-03 -4.174261e-03 -3.324592e-05 +8.483732e-04 +3.264285e-02 +1.365437e-02 +6.798180e-01 -1.310872e-02
         -3.324592e-05 +8.483732e-04 +6.147118e-03 -4.174261e-03 +6.798180e-01 -1.310872e-02 +3.264285e-02 +1.365437e-02
4.847000 +3.381738e-02 +2.034110e-02 +6.500585e-01 -1.893318e-01 +6.174105e-03 -4.306859e-03 +1.922094e-04 +8.414977e-04
         +6.500585e-01 -1.893318e-01 +3.381738e-02 +2.034110e-02 +1.922094e-04 +8.414977e-04 +6.174105e-03 -4.306859e-03
         +6.174105e-03 -4.306859e-03 +1.922094e-04 +8.414977e-04 +3.381738e-02 +2.034110e-02 +6.500585e-01 -1.893318e-01
         +1.922094e-04 +8.414977e-04 +6.174105e-03 -4.306859e-03 +6.500585e-01 -1.893318e-01 +3.381738e-02 +2.034110e-02
4.946937 +3.545061e-02 +2.693083e-02 +5.756856e-01 -3.510252e-01 +6.197497e-03 -4.439909e-03 +4.115109e-04 +7.746911e-04
         +5.756856e-01 -3.510252e-01 +3.545061e-02 +2.693083e-02 +4.115109e-04 +7.746911e-04 +6.197497e-03 -4.439909e-03
         +6.197497e-03 -4.439909e-03 +4.115109e-04 +7.746911e-04 +3.545061e-02 +2.693083e-02 +5.756856e-01 -3.510252e-01
         +4.115109e-04 +7.746911e-04 +6.197497e-03 -4.439909e-03 +5.756856e-01 -3.510252e-01 +3.545061e-02 +2.693083e-02
5.046875 +3.753475e-02 +3.339212e-02 +4.621800e-01 -4.871759e-01 +6.217324e-03 -4.573347e-03 +6.087426e-04 +6.508010e-04
         +4.621800e-01 -4.871759e-01 +3.753475e-02 +3.339212e-02 +6.087426e-04 +6.508010e-04 +6.217324e-03 -4.573347e-03
         +6.217324e-03 -4.573347e-03 +6.087426e-04 +6.508010e-04 +3.753475e-02 +3.339212e-02 +4.621800e-01 -4.871759e-01
         +6.087426e-04 +6.508010e-04 +6.217324e-03 -4.573347e-03 +4.621800e-01 -4.871759e-01 +3.753475e-02 +3.339212e-02
5.146813 +4.005986e-02 +3.969416e-02 +3.176657e-01 -5.886097e-01 +6.233620e-03 -4.707108e-03 +7.690883e-04 +4.768912e-04
         +3.176657e-01 -5.886097e-01 +4.005986e-02 +3.969416e-02 +7.690883e-04 +4.768912e-04 +6.233620e-03 -4.707108e-03
         +6.233620e-03 -4.707108e-03 +7.690883e-04 +4.768912e-04 +4.005986e-02 +3.969416e-02 +3.176657e-01 -5.886097e-01
         +7.690883e-04 +4.768912e-04 +6.233620e-03 -4.707108e-03 +3.176657e-01 -5.886097e-01 +4.005986e-02 +3.969416e-02
5.246750 +4.301389e-02 +4.580690e-02 +1.523349e-01 -6.486055e-01 +6.246415e-03 -4.841132e-03 +8.799435e-04 +2.638517e-04
         +1.523349e-01 -6.486055e-01 +4.301389e-02 +4.580690e-02 +8.799435e-04 +2.638517e-04 +6.246415e-03 -4.841132e-03
         +6.246415e-03 -4.841132e-03 +8.799435e-04 +2.638517e-04 +4.301389e-02 +4.580690e-02 +1.523349e-01 -6.486055e-01
         +8.799435e-04 +2.638517e-04 +6.246415e-03 -4.841132e-03 +1.523349e-01 -6.486055e-01 +4.301389e-02 +4.580690e-02
5.346688 +4.638276e-02 +5.170119e-02 -2.226446e-02 -6.633382e-01 +6.255743e-03 -4.975356e-03 +9.318962e-04 +2.571851e-05
         -2.226446e-02 -6.633382e-01 +4.638276e-02 +5.170119e-02 +9.318962e-04 +2.571851e-05 +6.255743e-03 -4.975356e-03
         +6.255743e-03 -4.975356e-03 +9.318962e-04 +2.571851e-05 +4.638276e-02 +5.170119e-02 -2.226446e-02 -6.633382e-01
         +9.318962e-04 +2.571851e-05 +6.255743e-03 -4.975356e-03 -2.226446e-02 -6.633382e-01 +4.638276e-02 +5.170119e-02
5.446625 +5.015040e-02 +5.734891e-02 -1.940285e-01 -6.321205e-01 +6.261634e-03 -5.109722e-03 +9.195010e-04 -2.212568e-04
         -1.940285e-01 -6.321205e-01 +5.015040e-02 +5.734891e-02 +9.195010e-04 -2.212568e-04 +6.261634e-03 -5.109722e-03
         +6.261634e-03 -5.109722e-03 +9.195010e-04 -2.212568e-04 +5.015040e-02 +5.734891e-02 -1.940285e-01 -6.321205e-01
         +9.195010e-04 -2.212568e-04 +6.261634e-03 -5.109722e-03 -1.940285e-01 -6.321205e-01 +5.015040e-02 +5.734891e-02
5.546562 +5.429885e-02 +6.272314e-02 -3.511308e-01 -5.574300e-01 +6.264121e-03 -5.244170e-03 +8.417842e-04 -4.597231e-04
         -3.511308e-01 -5.574300e-01 +5.429885e-02 +6.272314e-02 +8.417842e-04 -4.597231e-04 +6.264121e-03 -5.244170e-03
         +6.264121e-03 -5.244170e-03 +8.417842e-04 -4.597231e-04 +5.429885e-02 +6.272314e-02 -3.511308e-01 -5.574300e-01
         +8.417842e-04 -4.597231e-04 +6.264121e-03 -5.244170e-03 -3.511308e-01 -5.574300e-01 +5.429885e-02 +6.272314e-02
5.646500 +5.880832e-02 +6.779824e-02 -4.828320e-01 -4.447197e-01 +6.263235e-03 -5.378641e-03 +7.024367e-04 -6.724556e-04
         -4.828320e-01 -4.447197e-01 +5.880832e-02 +6.779824e-02 +7.024367e-04 -6.724556e-04 +6.263235e-03 -5.378641e-03
         +6.263235e-03 -5.378641e-03 +7.024367e-04 -6.724556e-04 +5.880832e-02 +6.779824e-02 -4.828320e-01 -4.447197e-01
         +7.024367e-04 -6.724556e-04 +6.263235e-03 -5.378641e-03 -4.828320e-01 -4.447197e-01 +5.880832e-02 +6.779824e-02
5.746438 +6.365730e-02 +7.255000e-02 -5.802098e-01 -3.020256e-01 +6.259007e-03 -5.513079e-03 +5.096715e-04 -8.436049e-04
         -5.802098e-01 -3.020256e-01 +6.365730e-02 +7.255000e-02 +5.096715e-04 -8.436049e-04 +6.259007e-03 -5.513079e-03
         +6.259007e-03 -5.513079e-03 +5.096715e-04 -8.436049e-04 +6.365730e-02 +7.255000e-02 -5.802098e-01 -3.020256e-01
         +5.096715e-04 -8.436049e-04 +6.259007e-03 -5.513079e-03 -5.802098e-01 -3.020256e-01 +6.365730e-02 +7.255000e-02
5.846375 +6.882268e-02 +7.695578e-02 -6.367621e-01 -1.394000e-01 +6.251470e-03 -5.647427e-03 +2.757498e-04 -9.598769e-04
         -6.367621e-01 -1.394000e-01 +6.882268e-02 +7.695578e-02 +2.757498e-04 -9.598769e-04 +6.251470e-03 -5.647427e-03
         +6.251470e-03 -5.647427e-03 +2.757498e-04 -9.598769e-04 +6.882268e-02 +7.695578e-02 -6.367621e-01 -1.394000e-01
         +2.757498e-04 -9.598769e-04 +6.251470e-03 -5.647427e-03 -6.367621e-01 -1.394000e-01 +6.882268e-02 +7.695578e-02
5.946313 +7.427981e-02 +8.099454e-02 -6.488403e-01 +3.179009e-02 +6.240654e-03 -5.781631e-03 +1.620073e-05 -1.011557e-03
         -6.488403e-01 +3.179009e-02 +7.427981e-02 +8.099454e-02 +1.620073e-05 -1.011557e-03 +6.240654e-03 -5.781631e-03
         +6.240654e-03 -5.781631e-03 +1.620073e-05 -1.011557e-03 +7.427981e-02 +8.099454e-02 -6.488403e-01 +3.179009e-02
         +1.620073e-05 -1.011557e-03 +6.240654e-03 -5.781631e-03 -6.488403e-01 +3.179009e-02 +7.427981e-02 +8.099454e-02
6.046250 +8.000267e-02 +8.464705e-02 -6.158859e-01 +1.996528e-01 +6.226592e-03 -5.915635e-03 -2.512145e-04 -9.933002e-04
         -6.158859e-01 +1.996528e-01 +8.000267e-02 +8.464705e-02 -2.512145e-04 -9.933002e-04 +6.226592e-03 -5.915635e-03
         +6.226592e-03 -5.915635e-03 -2.512145e-04 -9.933002e-04 +8.000267e-02 +8.464705e-02 -6.158859e-01 +1.996528e-01
         -2.512145e-04 -9.933002e-04 +6.226592e-03 -5.915635e-03 -6.158859e-01 +1.996528e-01 +8.000267e-02 +8.464705e-02
6.146187 +8.596397e-02 +8.789587e-02 -5.404529e-01 +3.525925e-01 +6.209315e-03 -6.049386e-03 -5.077247e-04 -9.046234e-04
         -5.404529e-01 +3.525925e-01 +8.596397e-02 +8.789587e-02 -5.077247e-04 -9.046234e-04 +6.209315e-03 -6.049386e-03
         +6.209315e-03 -6.049386e-03 -5.077247e-04 -9.046234e-04 +8.596397e-02 +8.789587e-02 -5.404529e-01 +3.525925e-01
         -5.077247e-04 -9.046234e-04 +6.209315e-03 -6.049386e-03 -5.404529e-01 +3.525925e-01 +8.596397e-02 +8.789587e-02
6.246125 +9.213527e-02 +9.072551e-02 -4.280174e-01 +4.801080e-01 +6.188855e-03 -6.182831e-03 -7.348733e-04 -7.500586e-04
         -4.280174e-01 +4.801080e-01 +9.213527e-02 +9.072551e-02 -7.348733e-04 -7.500586e-04 +6.188855e-03 -6.182831e-03
         +6.188855e-03 -6.182831e-03 -7.348733e-04 -7.500586e-04 +9.213527e-02 +9.072551e-02 -4.280174e-01 +4.801080e-01
         -7.348733e-04 -7.500586e-04 +6.188855e-03 -6.182831e-03 -4.280174e-01 +4.801080e-01 +9.213527e-02 +9.072551e-02
6.346063 +9.848716e-02 +9.312248e-02 -2.865855e-01 +5.735122e-01 +6.165243e-03 -6.315918e-03 -9.158501e-04 -5.389463e-04
         -2.865855e-01 +5.735122e-01 +9.848716e-02 +9.312248e-02 -9.158501e-04 -5.389463e-04 +6.165243e-03 -6.315918e-03
         +6.165243e-03 -6.315918e-03 -9.158501e-04 -5.389463e-04 +9.848716e-02 +9.312248e-02 -2.865855e-01 +5.735122e-01
         -9.158501e-04 -5.389463e-04 +6.165243e-03 -6.315918e-03 -2.865855e-01 +5.735122e-01 +9.848716e-02 +9.312248e-02
6.446000 +1.049893e-01 +9.507535e-02 -1.261290e-01 +6.265244e-01 +6.138512e-03 -6.448596e-03 -1.036736e-03 -2.848794e-04
         -1.261290e-01 +6.265244e-01 +1.049893e-01 +9.507535e-02 -1.036736e-03 -2.848794e-04 +6.138512e-03 -6.448596e-03
         +6.138512e-03 -6.448596e-03 -1.036736e-03 -2.848794e-04 +1.049893e-01 +9.507535e-02 -1.261290e-01 +6.265244e-01
         -1.036736e-03 -2.848794e-04 +6.138512e-03 -6.448596e-03 -1.261290e-01 +6.265244e-01 +1.049893e-01 +9.507535e-02
6.545937 +1.116108e-01 +9.657480e-02 +4.211210e-02 +6.356935e-01 +6.108692e-03 -6.580815e-03 -1.087564e-03 -4.826096e-06
         +4.211210e-02 +6.356935e-01 +1.116108e-01 +9.657480e-02 -1.087564e-03 -4.826096e-06 +6.108692e-03 -6.580815e-03
         +6.108692e-03 -6.580815e-03 -1.087564e-03 -4.826096e-06 +1.116108e-01 +9.657480e-02 +4.211210e-02 +6.356935e-01
         -1.087564e-03 -4.826096e-06 +6.108692e-03 -6.580815e-03 +4.211210e-02 +6.356935e-01 +1.116108e-01 +9.657480e-02
6.645875 +1.183199e-01 +9.761369e-02 +2.064139e-01 +6.006260e-01 +6.075817e-03 -6.712525e-03 -1.063126e-03 +2.820078e-04
         +2.064139e-01 +6.006260e-01 +1.183199e-01 +9.761369e-02 -1.063126e-03 +2.820078e-04 +6.075817e-03 -6.712525e-03
         +6.075817e-03 -6.712525e-03 -1.063126e-03 +2.820078e-04 +1.183199e-01 +9.761369e-02 +2.064139e-01 +6.006260e-01
         -1.063126e-03 +2.820078e-04 +6.075817e-03 -6.712525e-03 +2.064139e-01 +6.006260e-01 +1.183199e-01 +9.761369e-02
6.745813 +1.250848e-01 +9.818705e-02 +3.553825e-01 +5.240001e-01 +6.039917e-03 -6.843678e-03 -9.634454e-04 +5.555025e-04
         +3.553825e-01 +5.240001e-01 +1.250848e-01 +9.818705e-02 -9.634454e-04 +5.555025e-04 +6.039917e-03 -6.843678e-03
         +6.039917e-03 -6.843678e-03 -9.634454e-04 +5.555025e-04 +1.250848e-01 +9.818705e-02 +3.553825e-01 +5.240001e-01
         -9.634454e-04 +5.555025e-04 +6.039917e-03 -6.843678e-03 +3.553825e-01 +5.240001e-01 +1.250848e-01 +9.818705e-02
6.845750 +1.318731e-01 +9.829216e-02 +4.787436e-01 +4.113683e-01 +6.001025e-03 -6.974225e-03 -7.938940e-04 +7.960418e-04
         +4.787436e-01 +4.113683e-01 +1.318731e-01 +9.829216e-02 -7.938940e-04 +7.960418e-04 +6.001025e-03 -6.974225e-03
         +6.001025e-03 -6.974225e-03 -7.938940e-04 +7.960418e-04 +1.318731e-01 +9.829216e-02 +4.787436e-01 +4.113683e-01
         -7.938940e-04 +7.960418e-04 +6.001025e-03 -6.974225e-03 +4.787436e-01 +4.113683e-01 +1.318731e-01 +9.829216e-02
6.945688 +1.386524e-01 +9.792850e-02 +5.680516e-01 +2.707601e-01 +5.959173e-03 -7.104119e-03 -5.649196e-04 +9.859243e-04
         +5.680516e-01 +2.707601e-01 +1.386524e-01 +9.792850e-02 -5.649196e-04 +9.859243e-04 +5.959173e-03 -7.104119e-03
         +5.959173e-03 -7.104119e-03 -5.649196e-04 +9.859243e-04 +1.386524e-01 +9.792850e-02 +5.680516e-01 +2.707601e-01
         -5.649196e-04 +9.859243e-04 +5.959173e-03 -7.104119e-03 +5.680516e-01 +2.707601e-01 +1.386524e-01 +9.792850e-02
7.045625 +1.453905e-01 +9.709783e-02 +6.172699e-01 +1.121142e-01 +5.914393e-03 -7.233314e-03 -2.914087e-04 +1.110666e-03
         +6.172699e-01 +1.121142e-01 +1.453905e-01 +9.709783e-02 -2.914087e-04 +1.110666e-03 +5.914393e-03 -7.233314e-03
         +5.914393e-03 -7.233314e-03 -2.914087e-04 +1.110666e-03 +1.453905e-01 +9.709783e-02 +6.172699e-01 +1.121142e-01
         -2.914087e-04 +1.110666e-03 +5.914393e-03 -7.233314e-03 +6.172699e-01 +1.121142e-01 +1.453905e-01 +9.709783e-02
7.145562 +1.520552e-01 +9.580409e-02 +6.231821e-01 -5.342029e-02 +5.866717e-03 -7.361764e-03 +8.282388e-06 +1.160097e-03
         +6.231821e-01 -5.342029e-02 +1.520552e-01 +9.580409e-02 +8.282388e-06 +1.160097e-03 +5.866717e-03 -7.361764e-03
         +5.866717e-03 -7.361764e-03 +8.282388e-06 +1.160097e-03 +1.520552e-01 +9.580409e-02 +6.231821e-01 -5.342029e-02
         +8.282388e-06 +1.160097e-03 +5.866717e-03 -7.361764e-03 +6.231821e-01 -5.342029e-02 +1.520552e-01 +9.580409e-02
7.245500 +1.586147e-01 +9.405346e-02 +5.856056e-01 -2.142659e-01 +5.816179e-03 -7.489423e-03 +3.135651e-04 +1.129179e-03
         +5.856056e-01 -2.142659e-01 +1.586147e-01 +9.405346e-02 +3.135651e-04 +1.129179e-03 +5.816179e-03 -7.489423e-03
         +5.816179e-03 -7.489423e-03 +3.135651e-04 +1.129179e-03 +1.586147e-01 +9.405346e-02 +5.856056e-01 -2.142659e-01
         +3.135651e-04 +1.129179e-03 +5.816179e-03 -7.489423e-03 +5.856056e-01 -2.142659e-01 +1.586147e-01 +9.405346e-02
7.345438 +1.650378e-01 +9.185429e-02 +5.073924e-01 -3.592258e-01 +5.762809e-03 -7.616249e-03 +6.030389e-04 +1.018460e-03
         +5.073924e-01 -3.592258e-01 +1.650378e-01 +9.185429e-02 +6.030389e-04 +1.018460e-03 +5.762809e-03 -7.616249e-03
         +5.762809e-03 -7.616249e-03 +6.030389e-04 +1.018460e-03 +1.650378e-01 +9.185429e-02 +5.073924e-01 -3.592258e-01
         +6.030389e-04 +1.018460e-03 +5.762809e-03 -7.616249e-03 +5.073924e-01 -3.592258e-01 +1.650378e-01 +9.185429e-02
7.445375 +1.712937e-01 +8.921706e-02 +3.942191e-01 -4.782644e-01 +5.706642e-03 -7.742196e-03 +8.559971e-04 +8.341463e-04
         +3.942191e-01 -4.782644e-01 +1.712937e-01 +8.921706e-02 +8.559971e-04 +8.341463e-04 +5.706642e-03 -7.742196e-03
         +5.706642e-03 -7.742196e-03 +8.559971e-04 +8.341463e-04 +1.712937e-01 +8.921706e-02 +3.942191e-01 -4.782644e-01
         +8.559971e-04 +8.341463e-04 +5.706642e-03 -7.742196e-03 +3.942191e-01 -4.782644e-01 +1.712937e-01 +8.921706e-02
7.545312 +1.773527e-01 +8.615436e-02 +2.541787e-01 -5.632048e-01 +5.647709e-03 -7.867222e-03 +1.053912e-03 +5.877752e-04
         +2.541787e-01 -5.632048e-01 +1.773527e-01 +8.615436e-02 +1.053912e-03 +5.877752e-04 +5.647709e-03 -7.867222e-03
         +5.647709e-03 -7.867222e-03 +1.053912e-03 +5.877752e-04 +1.773527e-01 +8.615436e-02 +2.541787e-01 -5.632048e-01
         +1.053912e-03 +5.877752e-04 +5.647709e-03 -7.867222e-03 +2.541787e-01 -5.632048e-01 +1.773527e-01 +8.615436e-02
7.645250 +1.831859e-01 +8.268078e-02 +9.720491e-02 -6.082935e-01 +5.586043e-03 -7.991284e-03 +1.181794e-03 +2.954913e-04
         +9.720491e-02 -6.082935e-01 +1.831859e-01 +8.268078e-02 +1.181794e-03 +2.954913e-04 +5.586043e-03 -7.991284e-03
         +5.586043e-03 -7.991284e-03 +1.181794e-03 +2.954913e-04 +1.831859e-01 +8.268078e-02 +9.720491e-02 -6.082935e-01
         +1.181794e-03 +2.954913e-04 +5.586043e-03 -7.991284e-03 +9.720491e-02 -6.082935e-01 +1.831859e-01 +8.268078e-02
7.745188 +1.887655e-01 +7.881290e-02 -6.563111e-02 -6.105939e-01 +5.521678e-03 -8.114342e-03 +1.229316e-03 -2.301062e-05
         -6.563111e-02 -6.105939e-01 +1.887655e-01 +7.881290e-02 +1.229316e-03 -2.301062e-05 +5.521678e-03 -8.114342e-03
         +5.521678e-03 -8.114342e-03 +1.229316e-03 -2.301062e-05 +1.887655e-01 +7.881290e-02 -6.563111e-02 -6.105939e-01
         +1.229316e-03 -2.301062e-05 +5.521678e-03 -8.114342e-03 -6.563111e-02 -6.105939e-01 +1.887655e-01 +7.881290e-02
7.845125 +1.940648e-01 +7.456915e-02 -2.229017e-01 -5.701809e-01 +5.454646e-03 -8.236354e-03 +1.191640e-03 -3.458179e-04
         -2.229017e-01 -5.701809e-01 +1.940648e-01 +7.456915e-02 +1.191640e-03 -3.458179e-04 +5.454646e-03 -8.236354e-03
         +5.454646e-03 -8.236354e-03 +1.191640e-03 -3.458179e-04 +1.940648e-01 +7.456915e-02 -2.229017e-01 -5.701809e-01
         +1.191640e-03 -3.458179e-04 +5.454646e-03 -8.236354e-03 -2.229017e-01 -5.701809e-01 +1.940648e-01 +7.456915e-02
7.945062 +1.990586e-01 +6.996979e-02 -3.636260e-01 -4.901228e-01 +5.384981e-03 -8.357280e-03 +1.069854e-03 -6.503138e-04
         -3.636260e-01 -4.901228e-01 +1.990586e-01 +6.996979e-02 +1.069854e-03 -6.503138e-04 +5.384981e-03 -8.357280e-03
         +5.384981e-03 -8.357280e-03 +1.069854e-03 -6.503138e-04 +1.990586e-01 +6.996979e-02 -3.636260e-01 -4.901228e-01
         +1.069854e-03 -6.503138e-04 +5.384981e-03 -8.357280e-03 -3.636260e-01 -4.901228e-01 +1.990586e-01 +6.996979e-02
8.045000 +2.037230e-01 +6.503673e-02 -4.780400e-01 -3.762532e-01 +5.312716e-03 -8.477081e-03 +8.709992e-04 -9.147671e-04
         -4.780400e-01 -3.762532e-01 +2.037230e-01 +6.503673e-02 +8.709992e-04 -9.147671e-04 +5.312716e-03 -8.477081e-03
         +5.312716e-03 -8.477081e-03 +8.709992e-04 -9.147671e-04 +2.037230e-01 +6.503673e-02 -4.780400e-01 -3.762532e-01
         +8.709992e-04 -9.147671e-04 +5.312716e-03 -8.477081e-03 -4.780400e-01 -3.762532e-01 +2.037230e-01 +6.503673e-02
8.144938 +2.080358e-01 +5.979352e-02 -5.582767e-01 -2.367478e-01 +5.237884e-03 -8.595717e-03 +6.076809e-04 -1.119887e-03
         -5.582767e-01 -2.367478e-01 +2.080358e-01 +5.979352e-02 +6.076809e-04 -1.119887e-03 +5.237884e-03 -8.595717e-03
         +5.237884e-03 -8.595717e-03 +6.076809e-04 -1.119887e-03 +2.080358e-01 +5.979352e-02 -5.582767e-01 -2.367478e-01
         +6.076809e-04 -1.119887e-03 +5.237884e-03 -8.595717e-03 -5.582767e-01 -2.367478e-01 +2.080358e-01 +5.979352e-02
8.244875 +2.119765e-01 +5.426515e-02 -5.989114e-01 -8.153896e-02 +5.160519e-03 -8.713150e-03 +2.972683e-04 -1.250231e-03
         -5.989114e-01 -8.153896e-02 +2.119765e-01 +5.426515e-02 +2.972683e-04 -1.250231e-03 +5.160519e-03 -8.713150e-03
         +5.160519e-03 -8.713150e-03 +2.972683e-04 -1.250231e-03 +2.119765e-01 +5.426515e-02 -5.989114e-01 -8.153896e-02
         +2.972683e-04 -1.250231e-03 +5.160519e-03 -8.713150e-03 -5.989114e-01 -8.153896e-02 +2.119765e-01 +5.426515e-02
8.344813 +2.155263e-01 +4.847798e-02 -5.973315e-01 +7.839235e-02 +5.080655e-03 -8.829343e-03 -3.925216e-05 -1.295362e-03
         -5.973315e-01 +7.839235e-02 +2.155263e-01 +4.847798e-02 -3.925216e-05 -1.295362e-03 +5.080655e-03 -8.829343e-03
         +5.080655e-03 -8.829343e-03 -3.925216e-05 -1.295362e-03 +2.155263e-01 +4.847798e-02 -5.973315e-01 +7.839235e-02
         -3.925216e-05 -1.295362e-03 +5.080655e-03 -8.829343e-03 -5.973315e-01 +7.839235e-02 +2.155263e-01 +4.847798e-02
8.444750 +2.186681e-01 +4.245963e-02 -5.539062e-01 +2.317953e-01 +4.998326e-03 -8.944258e-03 -3.787005e-04 -1.250671e-03
         -5.539062e-01 +2.317953e-01 +2.186681e-01 +4.245963e-02 -3.787005e-04 -1.250671e-03 +4.998326e-03 -8.944258e-03
         +4.998326e-03 -8.944258e-03 -3.787005e-04 -1.250671e-03 +2.186681e-01 +4.245963e-02 -5.539062e-01 +2.317953e-01
         -3.787005e-04 -1.250671e-03 +4.998326e-03 -8.944258e-03 -5.539062e-01 +2.317953e-01 +2.186681e-01 +4.245963e-02
8.544688 +2.213871e-01 +3.623878e-02 -4.719455e-01 +3.679437e-01 +4.913565e-03 -9.057860e-03 -6.973053e-04 -1.117798e-03
         -4.719455e-01 +3.679437e-01 +2.213871e-01 +3.623878e-02 -6.973053e-04 -1.117798e-03 +4.913565e-03 -9.057860e-03
         +4.913565e-03 -9.057860e-03 -6.973053e-04 -1.117798e-03 +2.213871e-01 +3.623878e-02 -4.719455e-01 +3.679437e-01
         -6.973053e-04 -1.117798e-03 +4.913565e-03 -9.057860e-03 -4.719455e-01 +3.679437e-01 +2.213871e-01 +3.623878e-02
8.644625 +2.236703e-01 +2.984511e-02 -3.574498e-01 +4.773895e-01 +4.826407e-03 -9.170112e-03 -9.723739e-04 -9.046203e-04
         -3.574498e-01 +4.773895e-01 +2.236703e-01 +2.984511e-02 -9.723739e-04 -9.046203e-04 +4.826407e-03 -9.170112e-03
         +4.826407e-03 -9.170112e-03 -9.723739e-04 -9.046203e-04 +2.236703e-01 +2.984511e-02 -3.574498e-01 +4.773895e-01
         -9.723739e-04 -9.046203e-04 +4.826407e-03 -9.170112e-03 -3.574498e-01 +4.773895e-01 +2.236703e-01 +2.984511e-02
8.744563 +2.255068e-01 +2.330910e-02 -2.186721e-01 +5.526219e-01 +4.736886e-03 -9.280980e-03 -1.183912e-03 -6.247909e-04
         -2.186721e-01 +5.526219e-01 +2.255068e-01 +2.330910e-02 -1.183912e-03 -6.247909e-04 +4.736886e-03 -9.280980e-03
         +4.736886e-03 -9.280980e-03 -1.183912e-03 -6.247909e-04 +2.255068e-01 +2.330910e-02 -2.186721e-01 +5.526219e-01
         -1.183912e-03 -6.247909e-04 +4.736886e-03 -9.280980e-03 -2.186721e-01 +5.526219e-01 +2.255068e-01 +2.330910e-02
8.844500 +2.268877e-01 +1.666194e-02 -6.552139e-02 +5.885862e-01 +4.645037e-03 -9.390429e-03 -1.316077e-03 -2.968708e-04
         -6.552139e-02 +5.885862e-01 +2.268877e-01 +1.666194e-02 -1.316077e-03 -2.968708e-04 +4.645037e-03 -9.390429e-03
         +4.645037e-03 -9.390429e-03 -1.316077e-03 -2.968708e-04 +2.268877e-01 +1.666194e-02 -6.552139e-02 +5.885862e-01
         -1.316077e-03 -2.968708e-04 +4.645037e-03 -9.390429e-03 -6.552139e-02 +5.885862e-01 +2.268877e-01 +1.666194e-02
8.944438 +2.278067e-01 +9.935314e-03 +9.114648e-02 +5.830251e-01 +4.550893e-03 -9.498425e-03 -1.358362e-03 +5.690731e-05
         +9.114648e-02 +5.830251e-01 +2.278067e-01 +9.935314e-03 -1.358362e-03 +5.690731e-05 +4.550893e-03 -9.498425e-03
         +4.550893e-03 -9.498425e-03 -1.358362e-03 +5.690731e-05 +2.278067e-01 +9.935314e-03 +9.114648e-02 +5.830251e-01
         -1.358362e-03 +5.690731e-05 +4.550893e-03 -9.498425e-03 +9.114648e-02 +5.830251e-01 +2.278067e-01 +9.935314e-03
9.044375 +2.282592e-01 +3.161307e-03 +2.403018e-01 +5.366199e-01 +4.454490e-03 -9.604935e-03 -1.306417e-03 +4.121500e-04
         +2.403018e-01 +5.366199e-01 +2.282592e-01 +3.161307e-03 -1.306417e-03 +4.121500e-04 +4.454490e-03 -9.604935e-03
         +4.454490e-03 -9.604935e-03 -1.306417e-03 +4.121500e-04 +2.282592e-01 +3.161307e-03 +2.403018e-01 +5.366199e-01
         -1.306417e-03 +4.121500e-04 +4.454490e-03 -9.604935e-03 +2.403018e-01 +5.366199e-01 +2.282592e-01 +3.161307e-03
9.144312 +2.282430e-01 -3.627777e-03 +3.715207e-01 +4.529230e-01 +4.355862e-03 -9.709926e-03 -1.162449e-03 +7.439906e-04
         +3.715207e-01 +4.529230e-01 +2.282430e-01 -3.627777e-03 -1.162449e-03 +7.439906e-04 +4.355862e-03 -9.709926e-03
         +4.355862e-03 -9.709926e-03 -1.162449e-03 +7.439906e-04 +2.282430e-01 -3.627777e-03 +3.715207e-01 +4.529230e-01
         -1.162449e-03 +7.439906e-04 +4.355862e-03 -9.709926e-03 +3.715207e-01 +4.529230e-01 +2.282430e-01 -3.627777e-03
9.244250 +2.277584e-01 -1.039956e-02 +4.757174e-01 +3.380869e-01 +4.255044e-03 -9.813367e-03 -9.351639e-04 +1.028835e-03
         +4.757174e-01 +3.380869e-01 +2.277584e-01 -1.039956e-02 -9.351639e-04 +1.028835e-03 +4.255044e-03 -9.813367e-03
         +4.255044e-03 -9.813367e-03 -9.351639e-04 +1.028835e-03 +2.277584e-01 -1.039956e-02 +4.757174e-01 +3.380869e-01
         -9.351639e-04 +1.028835e-03 +4.255044e-03 -9.813367e-03 +4.757174e-01 +3.380869e-01 +2.277584e-01 -1.039956e-02
9.344188 +2.268076e-01 -1.712175e-02 +5.457754e-01 +2.004104e-01 +4.152072e-03 -9.915225e-03 -6.392478e-04 +1.246042e-03
         +5.457754e-01 +2.004104e-01 +2.268076e-01 -1.712175e-02 -6.392478e-04 +1.246042e-03 +4.152072e-03 -9.915225e-03
         +4.152072e-03 -9.915225e-03 -6.392478e-04 +1.246042e-03 +2.268076e-01 -1.712175e-02 +5.457754e-01 +2.004104e-01
         -6.392478e-04 +1.246042e-03 +4.152072e-03 -9.915225e-03 +5.457754e-01 +2.004104e-01 +2.268076e-01 -1.712175e-02
9.444125 +2.253950e-01 -2.376228e-02 +5.770357e-01 +4.973719e-02 +4.046980e-03 -1.001547e-02 -2.944206e-04 +1.379421e-03
         +5.770357e-01 +4.973719e-02 +2.253950e-01 -2.376228e-02 -2.944206e-04 +1.379421e-03 +4.046980e-03 -1.001547e-02
         +4.046980e-03 -1.001547e-02 -2.944206e-04 +1.379421e-03 +2.253950e-01 -2.376228e-02 +5.770357e-01 +4.973719e-02
         -2.944206e-04 +1.379421e-03 +4.046980e-03 -1.001547e-02 +5.770357e-01 +4.973719e-02 +2.253950e-01 -2.376228e-02
9.544063 +2.235276e-01 -3.028949e-02 +5.676061e-01 -1.032515e-01 +3.939805e-03 -1.011407e-02 +7.588231e-05 +1.418433e-03
         +5.676061e-01 -1.032515e-01 +2.235276e-01 -3.028949e-02 +7.588231e-05 +1.418433e-03 +3.939805e-03 -1.011407e-02
         +3.939805e-03 -1.011407e-02 +7.588231e-05 +1.418433e-03 +2.235276e-01 -3.028949e-02 +5.676061e-01 -1.032515e-01
         +7.588231e-05 +1.418433e-03 +3.939805e-03 -1.011407e-02 +5.676061e-01 -1.032515e-01 +2.235276e-01 -3.028949e-02
9.644000 +2.212140e-01 -3.667225e-02 +5.184727e-01 -2.477972e-01 +3.830580e-03 -1.021100e-02 +4.461062e-04 +1.359014e-03
         +5.184727e-01 -2.477972e-01 +2.212140e-01 -3.667225e-02 +4.461062e-04 +1.359014e-03 +3.830580e-03 -1.021100e-02
         +3.830580e-03 -1.021100e-02 +4.461062e-04 +1.359014e-03 +2.212140e-01 -3.667225e-02 +5.184727e-01 -2.477972e-01
         +4.461062e-04 +1.359014e-03 +3.830580e-03 -1.021100e-02 +5.184727e-01 -2.477972e-01 +2.212140e-01 -3.667225e-02
9.743938 +2.184655e-01 -4.288012e-02 +4.334059e-01 -3.738237e-01 +3.719343e-03 -1.030623e-02 +7.903462e-04 +1.203949e-03
         +4.334059e-01 -3.738237e-01 +2.184655e-01 -4.288012e-02 +7.903462e-04 +1.203949e-03 +3.719343e-03 -1.030623e-02
         +3.719343e-03 -1.030623e-02 +7.903462e-04 +1.203949e-03 +2.184655e-01 -4.288012e-02 +4.334059e-01 -3.738237e-01
         +7.903462e-04 +1.203949e-03 +3.719343e-03 -1.030623e-02 +4.334059e-01 -3.738237e-01 +2.184655e-01 -4.288012e-02
9.843875 +2.152951e-01 -4.888349e-02 +3.186712e-01 -4.726420e-01 +3.606128e-03 -1.039973e-02 +1.084164e-03 +9.627725e-04
         +3.186712e-01 -4.726420e-01 +2.152951e-01 -4.888349e-02 +1.084164e-03 +9.627725e-04 +3.606128e-03 -1.039973e-02
         +3.606128e-03 -1.039973e-02 +1.084164e-03 +9.627725e-04 +2.152951e-01 -4.888349e-02 +3.186712e-01 -4.726420e-01
         +1.084164e-03 +9.627725e-04 +3.606128e-03 -1.039973e-02 +3.186712e-01 -4.726420e-01 +2.152951e-01 -4.888349e-02
9.943813 +2.117180e-01 -5.465374e-02 +1.825652e-01 -5.375501e-01 +3.490972e-03 -1.049147e-02 +1.306327e-03 +6.511842e-04
         +1.825652e-01 -5.375501e-01 +2.117180e-01 -5.465374e-02 +1.306327e-03 +6.511842e-04 +3.490972e-03 -1.049147e-02
         +3.490972e-03 -1.049147e-02 +1.306327e-03 +6.511842e-04 +2.117180e-01 -5.465374e-02 +1.825652e-01 -5.375501e-01
         +1.306327e-03 +6.511842e-04 +3.490972e-03 -1.049147e-02 +1.825652e-01 -5.375501e-01 +2.117180e-01 -5.465374e-02
10.043750 +2.077511e-01 -6.016334e-02 +3.481286e-02 -5.642872e-01 +3.373910e-03 -1.058142e-02 +1.440343e-03 +2.900317e-04
         +3.481286e-02 -5.642872e-01 +2.077511e-01 -6.016334e-02 +1.440343e-03 +2.900317e-04 +3.373910e-03 -1.058142e-02
         +3.373910e-03 -1.058142e-02 +1.440343e-03 +2.900317e-04 +2.077511e-01 -6.016334e-02 +3.481286e-02 -5.642872e-01
         +1.440343e-03 +2.900317e-04 +3.373910e-03 -1.058142e-02 +3.481286e-02 -5.642872e-01 +2.077511e-01 -6.016334e-02
10.143688 +2.034134e-01 -6.538602e-02 -1.141303e-01 -5.513108e-01 +3.254979e-03 -1.066956e-02 +1.475680e-03 -9.608874e-05
         -1.141303e-01 -5.513108e-01 +2.034134e-01 -6.538602e-02 +1.475680e-03 -9.608874e-05 +3.254979e-03 -1.066956e-02
         +3.254979e-03 -1.066956e-02 +1.475680e-03 -9.608874e-05 +2.034134e-01 -6.538602e-02 -1.141303e-01 -5.513108e-01
         +1.475680e-03 -9.608874e-05 +3.254979e-03 -1.066956e-02 -1.141303e-01 -5.513108e-01 +2.034134e-01 -6.538602e-02
10.243625 +1.987256e-01 -7.029687e-02 -2.538208e-01 -4.998795e-01 +3.134214e-03 -1.075587e-02 +1.408584e-03 -4.805117e-04
         -2.538208e-01 -4.998795e-01 +1.987256e-01 -7.029687e-02 +1.408584e-03 -4.805117e-04 +3.134214e-03 -1.075587e-02
         +3.134214e-03 -1.075587e-02 +1.408584e-03 -4.805117e-04 +1.987256e-01 -7.029687e-02 -2.538208e-01 -4.998795e-01
         +1.408584e-03 -4.805117e-04 +3.134214e-03 -1.075587e-02 -2.538208e-01 -4.998795e-01 +1.987256e-01 -7.029687e-02
10.343563 +1.937100e-01 -7.487247e-02 -3.745610e-01 -4.139371e-01 +3.011652e-03 -1.084031e-02 +1.242432e-03 -8.363485e-04
         -3.745610e-01 -4.139371e-01 +1.937100e-01 -7.487247e-02 +1.242432e-03 -8.363485e-04 +3.011652e-03 -1.084031e-02
         +3.011652e-03 -1.084031e-02 +1.242432e-03 -8.363485e-04 +1.937100e-01 -7.487247e-02 -3.745610e-01 -4.139371e-01
         +1.242432e-03 -8.363485e-04 +3.011652e-03 -1.084031e-02 -3.745610e-01 -4.139371e-01 +1.937100e-01 -7.487247e-02
10.443500 +1.883907e-01 -7.909101e-02 -4.680729e-01 -2.998089e-01 +2.887330e-03 -1.092286e-02 +9.875789e-04 -1.138373e-03
         -4.680729e-01 -2.998089e-01 +1.883907e-01 -7.909101e-02 +9.875789e-04 -1.138373e-03 +2.887330e-03 -1.092286e-02
         +2.887330e-03 -1.092286e-02 +9.875789e-04 -1.138373e-03 +1.883907e-01 -7.909101e-02 -4.680729e-01 -2.998089e-01
         +9.875789e-04 -1.138373e-03 +2.887330e-03 -1.092286e-02 -4.680729e-01 -2.998089e-01 +1.883907e-01 -7.909101e-02
10.543438 +1.827928e-01 -8.293236e-02 -5.280649e-01 -1.657341e-01 +2.761284e-03 -1.100350e-02 +6.607240e-04 -1.364812e-03
         -5.280649e-01 -1.657341e-01 +1.827928e-01 -8.293236e-02 +6.607240e-04 -1.364812e-03 +2.761284e-03 -1.100350e-02
         +2.761284e-03 -1.100350e-02 +6.607240e-04 -1.364812e-03 +1.827928e-01 -8.293236e-02 -5.280649e-01 -1.657341e-01
         +6.607240e-04 -1.364812e-03 +2.761284e-03 -1.100350e-02 -5.280649e-01 -1.657341e-01 +1.827928e-01 -8.293236e-02
10.643375 +1.769432e-01 -8.637821e-02 -5.506525e-01 -2.126792e-02 +2.633551e-03 -1.108220e-02 +2.838114e-04 -1.498918e-03
         -5.506525e-01 -2.126792e-02 +1.769432e-01 -8.637821e-02 +2.838114e-04 -1.498918e-03 +2.633551e-03 -1.108220e-02
         +2.633551e-03 -1.108220e-02 +2.838114e-04 -1.498918e-03 +1.769432e-01 -8.637821e-02 -5.506525e-01 -2.126792e-02
         +2.838114e-04 -1.498918e-03 +2.633551e-03 -1.108220e-02 -5.506525e-01 -2.126792e-02 +1.769432e-01 -8.637821e-02
10.743313 +1.708697e-01 -8.941211e-02 -5.346051e-01 +1.234012e-01 +2.504166e-03 -1.115894e-02 -1.174430e-04 -1.530201e-03
         -5.346051e-01 +1.234012e-01 +1.708697e-01 -8.941211e-02 -1.174430e-04 -1.530201e-03 +2.504166e-03 -1.115894e-02
         +2.504166e-03 -1.115894e-02 -1.174430e-04 -1.530201e-03 +1.708697e-01 -8.941211e-02 -5.346051e-01 +1.234012e-01
         -1.174430e-04 -1.530201e-03 +2.504166e-03 -1.115894e-02 -5.346051e-01 +1.234012e-01 +1.708697e-01 -8.941211e-02
10.843250 +1.646013e-01 -9.201961e-02 -4.814045e-01 +2.581715e-01 +2.373169e-03 -1.123370e-02 -5.153113e-04 -1.455243e-03
         -4.814045e-01 +2.581715e-01 +1.646013e-01 -9.201961e-02 -5.153113e-04 -1.455243e-03 +2.373169e-03 -1.123370e-02
         +2.373169e-03 -1.123370e-02 -5.153113e-04 -1.455243e-03 +1.646013e-01 -9.201961e-02 -4.814045e-01 +2.581715e-01
         -5.153113e-04 -1.455243e-03 +2.373169e-03 -1.123370e-02 -4.814045e-01 +2.581715e-01 +1.646013e-01 -9.201961e-02
10.943188 +1.581679e-01 -9.418826e-02 -3.951120e-01 +3.737329e-01 +2.240594e-03 -1.130645e-02 -8.819741e-04 -1.278019e-03
         -3.951120e-01 +3.737329e-01 +1.581679e-01 -9.418826e-02 -8.819741e-04 -1.278019e-03 +2.240594e-03 -1.130645e-02
         +2.240594e-03 -1.130645e-02 -8.819741e-04 -1.278019e-03 +1.581679e-01 -9.418826e-02 -3.951120e-01 +3.737329e-01
         -8.819741e-04 -1.278019e-03 +2.240594e-03 -1.130645e-02 -3.951120e-01 +3.737329e-01 +1.581679e-01 -9.418826e-02
11.043125 +1.516001e-01 -9.590772e-02 -2.820574e-01 +4.622094e-01 +2.106479e-03 -1.137718e-02 -1.191470e-03 -1.009707e-03
         -2.820574e-01 +4.622094e-01 +1.516001e-01 -9.590772e-02 -1.191470e-03 -1.009707e-03 +2.106479e-03 -1.137718e-02
         +2.106479e-03 -1.137718e-02 -1.191470e-03 -1.009707e-03 +1.516001e-01 -9.590772e-02 -2.820574e-01 +4.622094e-01
         -1.191470e-03 -1.009707e-03 +2.106479e-03 -1.137718e-02 -2.820574e-01 +4.622094e-01 +1.516001e-01 -9.590772e-02
11.143063 +1.449293e-01 -9.716980e-02 -1.503725e-01 +5.176926e-01 +1.970862e-03 -1.144586e-02 -1.421536e-03 -6.679836e-04
         -1.503725e-01 +5.176926e-01 +1.449293e-01 -9.716980e-02 -1.421536e-03 -6.679836e-04 +1.970862e-03 -1.144586e-02
         +1.970862e-03 -1.144586e-02 -1.421536e-03 -6.679836e-04 +1.449293e-01 -9.716980e-02 -1.503725e-01 +5.176926e-01
         -1.421536e-03 -6.679836e-04 +1.970862e-03 -1.144586e-02 -1.503725e-01 +5.176926e-01 +1.449293e-01 -9.716980e-02
11.243000 +1.381874e-01 -9.796848e-02 -9.404430e-03 +5.366326e-01 +1.833779e-03 -1.151247e-02 -1.555213e-03 -2.758607e-04
         -9.404430e-03 +5.366326e-01 +1.381874e-01 -9.796848e-02 -1.555213e-03 -2.758607e-04 +1.833779e-03 -1.151247e-02
         +1.833779e-03 -1.151247e-02 -1.555213e-03 -2.758607e-04 +1.381874e-01 -9.796848e-02 -9.404430e-03 +5.366326e-01
         -1.555213e-03 -2.758607e-04 +1.833779e-03 -1.151247e-02 -9.404430e-03 +5.366326e-01 +1.381874e-01 -9.796848e-02
11.342938 +1.314064e-01 -9.829994e-02 +1.309481e-01 +5.180588e-01 +1.695268e-03 -1.157700e-02 -1.582086e-03 +1.398658e-04
         +1.309481e-01 +5.180588e-01 +1.314064e-01 -9.829994e-02 -1.582086e-03 +1.398658e-04 +1.695268e-03 -1.157700e-02
         +1.695268e-03 -1.157700e-02 -1.582086e-03 +1.398658e-04 +1.314064e-01 -9.829994e-02 +1.309481e-01 +5.180588e-01
         -1.582086e-03 +1.398658e-04 +1.695268e-03 -1.157700e-02 +1.309481e-01 +5.180588e-01 +1.314064e-01 -9.829994e-02
11.442875 +1.246187e-01 -9.816261e-02 +2.609298e-01 +4.636199e-01 +1.555367e-03 -1.163942e-02 -1.499097e-03 +5.504524e-04
         +2.609298e-01 +4.636199e-01 +1.246187e-01 -9.816261e-02 -1.499097e-03 +5.504524e-04 +1.555367e-03 -1.163942e-02
         +1.555367e-03 -1.163942e-02 -1.499097e-03 +5.504524e-04 +1.246187e-01 -9.816261e-02 +2.609298e-01 +4.636199e-01
         -1.499097e-03 +5.504524e-04 +1.555367e-03 -1.163942e-02 +2.609298e-01 +4.636199e-01 +1.246187e-01 -9.816261e-02
11.542813 +1.178566e-01 -9.755713e-02 +3.716050e-01 +3.774401e-01 +1.414112e-03 -1.169971e-02 -1.310829e-03 +9.271999e-04
         +3.716050e-01 +3.774401e-01 +1.178566e-01 -9.755713e-02 -1.310829e-03 +9.271999e-04 +1.414112e-03 -1.169971e-02
         +1.414112e-03 -1.169971e-02 -1.310829e-03 +9.271999e-04 +1.178566e-01 -9.755713e-02 +3.716050e-01 +3.774401e-01
         -1.310829e-03 +9.271999e-04 +1.414112e-03 -1.169971e-02 +3.716050e-01 +3.774401e-01 +1.178566e-01 -9.755713e-02
11.642750 +1.111525e-01 -9.648641e-02 +4.554690e-01 +2.658061e-01 +1.271541e-03 -1.175786e-02 -1.029274e-03 +1.243463e-03
         +4.554690e-01 +2.658061e-01 +1.111525e-01 -9.648641e-02 -1.029274e-03 +1.243463e-03 +1.271541e-03 -1.175786e-02
         +1.271541e-03 -1.175786e-02 -1.029274e-03 +1.243463e-03 +1.111525e-01 -9.648641e-02 +4.554690e-01 +2.658061e-01
         -1.029274e-03 +1.243463e-03 +1.271541e-03 -1.175786e-02 +4.554690e-01 +2.658061e-01 +1.111525e-01 -9.648641e-02
11.742688 +1.045382e-01 -9.495554e-02 +5.069532e-01 +1.367073e-01 +1.127692e-03 -1.181385e-02 -6.730726e-04 +1.476537e-03
         +5.069532e-01 +1.367073e-01 +1.045382e-01 -9.495554e-02 -6.730726e-04 +1.476537e-03 +1.127692e-03 -1.181385e-02
         +1.127692e-03 -1.181385e-02 -6.730726e-04 +1.476537e-03 +1.045382e-01 -9.495554e-02 +5.069532e-01 +1.367073e-01
         -6.730726e-04 +1.476537e-03 +1.127692e-03 -1.181385e-02 +5.069532e-01 +1.367073e-01 +1.045382e-01 -9.495554e-02
11.842625 +9.804540e-02 -9.297182e-02 +5.227896e-01 -7.363323e-04 +9.826024e-04 -1.186767e-02 -2.662750e-04 +1.609291e-03
         +5.227896e-01 -7.363323e-04 +9.804540e-02 -9.297182e-02 -2.662750e-04 +1.609291e-03 +9.826024e-04 -1.186767e-02
         +9.826024e-04 -1.186767e-02 -2.662750e-04 +1.609291e-03 +9.804540e-02 -9.297182e-02 +5.227896e-01 -7.363323e-04
         -2.662750e-04 +1.609291e-03 +9.826024e-04 -1.186767e-02 +5.227896e-01 -7.363323e-04 +9.804540e-02 -9.297182e-02
11.942563 +9.170496e-02 -9.054472e-02 +5.022124e-01 -1.369174e-01 +8.363102e-04 -1.191928e-02 +1.632818e-04 +1.631422e-03
         +5.022124e-01 -1.369174e-01 +9.170496e-02 -9.054472e-02 +1.632818e-04 +1.631422e-03 +8.363102e-04 -1.191928e-02
         +8.363102e-04 -1.191928e-02 +1.632818e-04 +1.631422e-03 +9.170496e-02 -9.054472e-02 +5.022124e-01 -1.369174e-01
         +1.632818e-04 +1.631422e-03 +8.363102e-04 -1.191928e-02 +5.022124e-01 -1.369174e-01 +9.170496e-02 -9.054472e-02
12.042500 +8.554716e-02 -8.768581e-02 +4.469845e-01 -2.624107e-01 +6.888528e-04 -1.196869e-02 +5.858847e-04 +1.540246e-03
         +4.469845e-01 -2.624107e-01 +8.554716e-02 -8.768581e-02 +5.858847e-04 +1.540246e-03 +6.888528e-04 -1.196869e-02
         +6.888528e-04 -1.196869e-02 +5.858847e-04 +1.540246e-03 +8.554716e-02 -8.768581e-02 +4.469845e-01 -2.624107e-01
         +5.858847e-04 +1.540246e-03 +6.888528e-04 -1.196869e-02 +4.469845e-01 -2.624107e-01 +8.554716e-02 -8.768581e-02
12.142438 +7.960135e-02 -8.440872e-02 +3.612484e-01 -3.686230e-01 +5.402684e-04 -1.201587e-02 +9.720032e-04 +1.340968e-03
         +3.612484e-01 -3.686230e-01 +7.960135e-02 -8.440872e-02 +9.720032e-04 +1.340968e-03 +5.402684e-04 -1.201587e-02
         +5.402684e-04 -1.201587e-02 +9.720032e-04 +1.340968e-03 +7.960135e-02 -8.440872e-02 +3.612484e-01 -3.686230e-01
         +9.720032e-04 +1.340968e-03 +5.402684e-04 -1.201587e-02 +3.612484e-01 -3.686230e-01 +7.960135e-02 -8.440872e-02
12.242375 +7.389590e-02 -8.072909e-02 +2.512158e-01 -4.483769e-01 +3.905946e-04 -1.206081e-02 +1.294357e-03 +1.046389e-03
         +2.512158e-01 -4.483769e-01 +7.389590e-02 -8.072909e-02 +1.294357e-03 +1.046389e-03 +3.905946e-04 -1.206081e-02
         +3.905946e-04 -1.206081e-02 +1.294357e-03 +1.046389e-03 +7.389590e-02 -8.072909e-02 +2.512158e-01 -4.483769e-01
         +1.294357e-03 +1.046389e-03 +3.905946e-04 -1.206081e-02 +2.512158e-01 -4.483769e-01 +7.389590e-02 -8.072909e-02
12.342313 +6.845800e-02 -7.666446e-02 +1.247177e-01 -4.963918e-01 +2.398694e-04 -1.210350e-02 +1.529848e-03 +6.760945e-04
         +1.247177e-01 -4.963918e-01 +6.845800e-02 -7.666446e-02 +1.529848e-03 +6.760945e-04 +2.398694e-04 -1.210350e-02
         +2.398694e-04 -1.210350e-02 +1.529848e-03 +6.760945e-04 +6.845800e-02 -7.666446e-02 +1.247177e-01 -4.963918e-01
         +1.529848e-03 +6.760945e-04 +2.398694e-04 -1.210350e-02 +1.247177e-01 -4.963918e-01 +6.845800e-02 -7.666446e-02
12.442250 +6.331361e-02 -7.223421e-02 -9.351806e-03 -5.096284e-01 +8.813091e-05 -1.214392e-02 +1.661212e-03 +2.551448e-04
         -9.351806e-03 -5.096284e-01 +6.331361e-02 -7.223421e-02 +1.661212e-03 +2.551448e-04 +8.813091e-05 -1.214392e-02
         +8.813091e-05 -1.214392e-02 +1.661212e-03 +2.551448e-04 +6.331361e-02 -7.223421e-02 -9.351806e-03 -5.096284e-01
         +1.661212e-03 +2.551448e-04 +8.813091e-05 -1.214392e-02 -9.351806e-03 -5.096284e-01 +6.331361e-02 -7.223421e-02
12.542188 +5.848724e-02 -6.745948e-02 -1.416586e-01 -4.874758e-01 -6.458300e-05 -1.218205e-02 +1.678286e-03 -1.876197e-04
         -1.416586e-01 -4.874758e-01 +5.848724e-02 -6.745948e-02 +1.678286e-03 -1.876197e-04 -6.458300e-05 -1.218205e-02
         -6.458300e-05 -1.218205e-02 +1.678286e-03 -1.876197e-04 +5.848724e-02 -6.745948e-02 -1.416586e-01 -4.874758e-01
         +1.678286e-03 -1.876197e-04 -6.458300e-05 -1.218205e-02 -1.416586e-01 -4.874758e-01 +5.848724e-02 -6.745948e-02
12.642125 +5.400191e-02 -6.236303e-02 -2.630756e-01 -4.317694e-01 -2.182343e-04 -1.221790e-02 +1.578786e-03 -6.215598e-04
         -2.630756e-01 -4.317694e-01 +5.400191e-02 -6.236303e-02 +1.578786e-03 -6.215598e-04 -2.182343e-04 -1.221790e-02
         -2.182343e-04 -1.221790e-02 +1.578786e-03 -6.215598e-04 +5.400191e-02 -6.236303e-02 -2.630756e-01 -4.317694e-01
         +1.578786e-03 -6.215598e-04 -2.182343e-04 -1.221790e-02 -2.630756e-01 -4.317694e-01 +5.400191e-02 -6.236303e-02
12.742062 +4.987903e-02 -5.696917e-02 -3.653081e-01 -3.466416e-01 -3.727848e-04 -1.225143e-02 +1.368540e-03 -1.016362e-03
         -3.653081e-01 -3.466416e-01 +4.987903e-02 -5.696917e-02 +1.368540e-03 -1.016362e-03 -3.727848e-04 -1.225143e-02
         -3.727848e-04 -1.225143e-02 +1.368540e-03 -1.016362e-03 +4.987903e-02 -5.696917e-02 -3.653081e-01 -3.466416e-01
         +1.368540e-03 -1.016362e-03 -3.727848e-04 -1.225143e-02 -3.653081e-01 -3.466416e-01 +4.987903e-02 -5.696917e-02
12.842000 +4.613824e-02 -5.130362e-02 -4.414565e-01 -2.382162e-01 -5.281965e-04 -1.228265e-02 +1.061157e-03 -1.344159e-03
         -4.414565e-01 -2.382162e-01 +4.613824e-02 -5.130362e-02 +1.061157e-03 -1.344159e-03 -5.281965e-04 -1.228265e-02
         -5.281965e-04 -1.228265e-02 +1.061157e-03 -1.344159e-03 +4.613824e-02 -5.130362e-02 -4.414565e-01 -2.382162e-01
         +1.061157e-03 -1.344159e-03 -5.281965e-04 -1.228265e-02 -4.414565e-01 -2.382162e-01 +4.613824e-02 -5.130362e-02
12.941938 +4.279739e-02 -4.539340e-02 -4.864776e-01 -1.141686e-01 -6.844313e-04 -1.231154e-02 +6.771474e-04 -1.581500e-03
         -4.864776e-01 -1.141686e-01 +4.279739e-02 -4.539340e-02 +6.771474e-04 -1.581500e-03 -6.844313e-04 -1.231154e-02
         -6.844313e-04 -1.231154e-02 +6.771474e-04 -1.581500e-03 +4.279739e-02 -4.539340e-02 -4.864776e-01 -1.141686e-01
         +6.771474e-04 -1.581500e-03 -6.844313e-04 -1.231154e-02 -4.864776e-01 -1.141686e-01 +4.279739e-02 -4.539340e-02
13.041875 +3.987241e-02 -3.926671e-02 -4.975141e-01 +1.681411e-02 -8.414511e-04 -1.233809e-02 +2.425559e-04 -1.711030e-03
         -4.975141e-01 +1.681411e-02 +3.987241e-02 -3.926671e-02 +2.425559e-04 -1.711030e-03 -8.414511e-04 -1.233809e-02
         -8.414511e-04 -1.233809e-02 +2.425559e-04 -1.711030e-03 +3.987241e-02 -3.926671e-02 -4.975141e-01 +1.681411e-02
         +2.425559e-04 -1.711030e-03 -8.414511e-04 -1.233809e-02 -4.975141e-01 +1.681411e-02 +3.987241e-02 -3.926671e-02
13.141813 +3.737726e-02 -3.295274e-02 -4.740719e-01 +1.456393e-01 -9.992178e-04 -1.236229e-02 -2.128111e-04 -1.722754e-03
         -4.740719e-01 +1.456393e-01 +3.737726e-02 -3.295274e-02 -2.128111e-04 -1.722754e-03 -9.992178e-04 -1.236229e-02
         -9.992178e-04 -1.236229e-02 -2.128111e-04 -1.722754e-03 +3.737726e-02 -3.295274e-02 -4.740719e-01 +1.456393e-01
         -2.128111e-04 -1.722754e-03 -9.992178e-04 -1.236229e-02 -4.740719e-01 +1.456393e-01 +3.737726e-02 -3.295274e-02
13.241750 +3.532382e-02 -2.648163e-02 -4.180340e-01 +2.634356e-01 -1.157693e-03 -1.238414e-02 -6.574316e-04 -1.614804e-03
         -4.180340e-01 +2.634356e-01 +3.532382e-02 -2.648163e-02 -6.574316e-04 -1.614804e-03 -1.157693e-03 -1.238414e-02
         -1.157693e-03 -1.238414e-02 -6.574316e-04 -1.614804e-03 +3.532382e-02 -2.648163e-02 -4.180340e-01 +2.634356e-01
         -6.574316e-04 -1.614804e-03 -1.157693e-03 -1.238414e-02 -4.180340e-01 +2.634356e-01 +3.532382e-02 -2.648163e-02
13.341688 +3.372189e-02 -1.988422e-02 -3.335118e-01 +3.621601e-01 -1.316839e-03 -1.240361e-02 -1.060254e-03 -1.393641e-03
         -3.335118e-01 +3.621601e-01 +3.372189e-02 -1.988422e-02 -1.060254e-03 -1.393641e-03 -1.316839e-03 -1.240361e-02
         -1.316839e-03 -1.240361e-02 -1.060254e-03 -1.393641e-03 +3.372189e-02 -1.988422e-02 -3.335118e-01 +3.621601e-01
         -1.060254e-03 -1.393641e-03 -1.316839e-03 -1.240361e-02 -3.335118e-01 +3.621601e-01 +3.372189e-02 -1.988422e-02
13.441625 +3.257912e-02 -1.319199e-02 -2.265453e-01 +4.351435e-01 -1.476617e-03 -1.242071e-02 -1.392871e-03 -1.073674e-03
         -2.265453e-01 +4.351435e-01 +3.257912e-02 -1.319199e-02 -1.392871e-03 -1.073674e-03 -1.476617e-03 -1.242071e-02
         -1.476617e-03 -1.242071e-02 -1.392871e-03 -1.073674e-03 +3.257912e-02 -1.319199e-02 -2.265453e-01 +4.351435e-01
         -1.392871e-03 -1.073674e-03 -1.476617e-03 -1.242071e-02 -2.265453e-01 +4.351435e-01 +3.257912e-02 -1.319199e-02
13.541563 +3.190095e-02 -6.436844e-03 -1.046740e-01 +4.775366e-01 -1.636990e-03 -1.243543e-02 -1.631523e-03 -6.763245e-04
         -1.046740e-01 +4.775366e-01 +3.190095e-02 -6.436844e-03 -1.631523e-03 -6.763245e-04 -1.636990e-03 -1.243543e-02
         -1.636990e-03 -1.243543e-02 -1.631523e-03 -6.763245e-04 +3.190095e-02 -6.436844e-03 -1.046740e-01 +4.775366e-01
         -1.631523e-03 -6.763245e-04 -1.636990e-03 -1.243543e-02 -1.046740e-01 +4.775366e-01 +3.190095e-02 -6.436844e-03
13.641500 +3.169062e-02 +3.489997e-04 +2.359113e-02 +4.866300e-01 -1.797919e-03 -1.244776e-02 -1.758797e-03 -2.285901e-04
         +2.359113e-02 +4.866300e-01 +3.169062e-02 +3.489997e-04 -1.758797e-03 -2.285901e-04 -1.797919e-03 -1.244776e-02
         -1.797919e-03 -1.244776e-02 -1.758797e-03 -2.285901e-04 +3.169062e-02 +3.489997e-04 +2.359113e-02 +4.866300e-01
         -1.758797e-03 -2.285901e-04 -1.797919e-03 -1.244776e-02 +2.359113e-02 +4.866300e-01 +3.169062e-02 +3.489997e-04
13.741437 +3.194913e-02 +7.133179e-03 +1.493585e-01 +4.620241e-01 -1.959366e-03 -1.245769e-02 -1.764896e-03 +2.387911e-04
         +1.493585e-01 +4.620241e-01 +3.194913e-02 +7.133179e-03 -1.764896e-03 +2.387911e-04 -1.959366e-03 -1.245769e-02
         -1.959366e-03 -1.245769e-02 -1.764896e-03 +2.387911e-04 +3.194913e-02 +7.133179e-03 +1.493585e-01 +4.620241e-01
         -1.764896e-03 +2.387911e-04 -1.959366e-03 -1.245769e-02 +1.493585e-01 +4.620241e-01 +3.194913e-02 +7.133179e-03
13.841375 +3.267524e-02 +1.388334e-02 +2.639684e-01 +4.056408e-01 -2.121294e-03 -1.246522e-02 -1.648386e-03 +6.934560e-04
         +2.639684e-01 +4.056408e-01 +3.267524e-02 +1.388334e-02 -1.648386e-03 +6.934560e-04 -2.121294e-03 -1.246522e-02
         -2.121294e-03 -1.246522e-02 -1.648386e-03 +6.934560e-04 +3.267524e-02 +1.388334e-02 +2.639684e-01 +4.056408e-01
         -1.648386e-03 +6.934560e-04 -2.121294e-03 -1.246522e-02 +2.639684e-01 +4.056408e-01 +3.267524e-02 +1.388334e-02
13.941313 +3.386550e-02 +2.056729e-02 +3.595853e-01 +3.215766e-01 -2.283663e-03 -1.247034e-02 -1.416365e-03 +1.103660e-03
         +3.595853e-01 +3.215766e-01 +3.386550e-02 +2.056729e-02 -1.416365e-03 +1.103660e-03 -2.283663e-03 -1.247034e-02
         -2.283663e-03 -1.247034e-02 -1.416365e-03 +1.103660e-03 +3.386550e-02 +2.056729e-02 +3.595853e-01 +3.215766e-01
         -1.416365e-03 +1.103660e-03 -2.283663e-03 -1.247034e-02 +3.595853e-01 +3.215766e-01 +3.386550e-02 +2.056729e-02
14.041250 +3.551422e-02 +2.715316e-02 +4.297306e-01 +2.158075e-01 -2.446436e-03 -1.247305e-02 -1.084036e-03 +1.440499e-03
         +4.297306e-01 +2.158075e-01 +3.551422e-02 +2.715316e-02 -1.084036e-03 +1.440499e-03 -2.446436e-03 -1.247305e-02
         -2.446436e-03 -1.247305e-02 -1.084036e-03 +1.440499e-03 +3.551422e-02 +2.715316e-02 +4.297306e-01 +2.158075e-01
         -1.084036e-03 +1.440499e-03 -2.446436e-03 -1.247305e-02 +4.297306e-01 +2.158075e-01 +3.551422e-02 +2.715316e-02
14.141188 +3.761355e-02 +3.360953e-02 +4.697188e-01 +9.576731e-02 -2.609576e-03 -1.247334e-02 -6.737144e-04 +1.679944e-03
         +4.697188e-01 +9.576731e-02 +3.761355e-02 +3.360953e-02 -6.737144e-04 +1.679944e-03 -2.609576e-03 -1.247334e-02
         -2.609576e-03 -1.247334e-02 -6.737144e-04 +1.679944e-03 +3.761355e-02 +3.360953e-02 +4.697188e-01 +9.576731e-02
         -6.737144e-04 +1.679944e-03 -2.609576e-03 -1.247334e-02 +4.697188e-01 +9.576731e-02 +3.761355e-02 +3.360953e-02
14.241125 +4.015348e-02 +3.990562e-02 +4.769688e-01 -3.017063e-02 -2.773044e-03 -1.247120e-02 -2.133254e-04 +1.804562e-03
         +4.769688e-01 -3.017063e-02 +4.015348e-02 +3.990562e-02 -2.133254e-04 +1.804562e-03 -2.773044e-03 -1.247120e-02
         -2.773044e-03 -1.247120e-02 -2.133254e-04 +1.804562e-03 +4.015348e-02 +3.990562e-02 +4.769688e-01 -3.017063e-02
         -2.133254e-04 +1.804562e-03 -2.773044e-03 -1.247120e-02 +4.769688e-01 -3.017063e-02 +4.015348e-02 +3.990562e-02
14.341063 +4.312188e-02 +4.601139e-02 +4.511698e-01 -1.532742e-01 -2.936802e-03 -1.246664e-02 +2.654977e-04 +1.804779e-03
         +4.511698e-01 -1.532742e-01 +4.312188e-02 +4.601139e-02 +2.654977e-04 +1.804779e-03 -2.936802e-03 -1.246664e-02
         -2.936802e-03 -1.246664e-02 +2.654977e-04 +1.804779e-03 +4.312188e-02 +4.601139e-02 +4.511698e-01 -1.532742e-01
         +2.654977e-04 +1.804779e-03 -2.936802e-03 -1.246664e-02 +4.511698e-01 -1.532742e-01 +4.312188e-02 +4.601139e-02
14.441000 +4.650461e-02 +5.189774e-02 +3.942905e-01 -2.650544e-01 -3.100813e-03 -1.245965e-02 +7.295907e-04 +1.679611e-03
         +3.942905e-01 -2.650544e-01 +4.650461e-02 +5.189774e-02 +7.295907e-04 +1.679611e-03 -3.100813e-03 -1.245965e-02
         -3.100813e-03 -1.245965e-02 +7.295907e-04 +1.679611e-03 +4.650461e-02 +5.189774e-02 +3.942905e-01 -2.650544e-01
         +7.295907e-04 +1.679611e-03 -3.100813e-03 -1.245965e-02 +3.942905e-01 -2.650544e-01 +4.650461e-02 +5.189774e-02
14.540938 +5.028552e-02 +5.753658e-02 +3.104324e-01 -3.578475e-01 -3.265039e-03 -1.245024e-02 +1.146560e-03 +1.436797e-03
         +3.104324e-01 -3.578475e-01 +5.028552e-02 +5.753658e-02 +1.146560e-03 +1.436797e-03 -3.265039e-03 -1.245024e-02
         -3.265039e-03 -1.245024e-02 +1.146560e-03 +1.436797e-03 +5.028552e-02 +5.753658e-02 +3.104324e-01 -3.578475e-01
         +1.146560e-03 +1.436797e-03 -3.265039e-03 -1.245024e-02 +3.104324e-01 -3.578475e-01 +5.028552e-02 +5.753658e-02
14.640875 +5.444660e-02 +6.290104e-02 +2.055374e-01 -4.253384e-01 -3.429442e-03 -1.243838e-02 +1.487045e-03 +1.092331e-03
         +2.055374e-01 -4.253384e-01 +5.444660e-02 +6.290104e-02 +1.487045e-03 +1.092331e-03 -3.429442e-03 -1.243838e-02
         -3.429442e-03 -1.243838e-02 +1.487045e-03 +1.092331e-03 +5.444660e-02 +6.290104e-02 +2.055374e-01 -4.253384e-01
         +1.487045e-03 +1.092331e-03 -3.429442e-03 -1.243838e-02 +2.055374e-01 -4.253384e-01 +5.444660e-02 +6.290104e-02
14.740813 +5.896800e-02 +6.796551e-02 +8.697059e-02 -4.629895e-01 -3.593985e-03 -1.242410e-02 +1.726790e-03 +6.694016e-04
         +8.697059e-02 -4.629895e-01 +5.896800e-02 +6.796551e-02 +1.726790e-03 +6.694016e-04 -3.593985e-03 -1.242410e-02
         -3.593985e-03 -1.242410e-02 +1.726790e-03 +6.694016e-04 +5.896800e-02 +6.796551e-02 +8.697059e-02 -4.629895e-01
         +1.726790e-03 +6.694016e-04 -3.593985e-03 -1.242410e-02 +8.697059e-02 -4.629895e-01 +5.896800e-02 +6.796551e-02
14.840750 +6.382814e-02 +7.270586e-02 -3.699324e-02 -4.683454e-01 -3.758629e-03 -1.240738e-02 +1.848373e-03 +1.968359e-04
         -3.699324e-02 -4.683454e-01 +6.382814e-02 +7.270586e-02 +1.848373e-03 +1.968359e-04 -3.758629e-03 -1.240738e-02
         -3.758629e-03 -1.240738e-02 +1.848373e-03 +1.968359e-04 +6.382814e-02 +7.270586e-02 -3.699324e-02 -4.683454e-01
         +1.848373e-03 +1.968359e-04 -3.758629e-03 -1.240738e-02 -3.699324e-02 -4.683454e-01 +6.382814e-02 +7.270586e-02
14.940688 +6.900387e-02 +7.709947e-02 -1.577438e-01 -4.411935e-01 -3.923339e-03 -1.238822e-02 +1.842468e-03 -2.928715e-04
         -1.577438e-01 -4.411935e-01 +6.900387e-02 +7.709947e-02 +1.842468e-03 -2.928715e-04 -3.923339e-03 -1.238822e-02
         -3.923339e-03 -1.238822e-02 +1.842468e-03 -2.928715e-04 +6.900387e-02 +7.709947e-02 -1.577438e-01 -4.411935e-01
         +1.842468e-03 -2.928715e-04 -3.923339e-03 -1.238822e-02 -1.577438e-01 -4.411935e-01 +6.900387e-02 +7.709947e-02
15.040625 +7.447048e-02 +8.112539e-02 -2.669307e-01 -3.835706e-01 -4.088076e-03 -1.236663e-02 +1.708555e-03 -7.657952e-04
         -2.669307e-01 -3.835706e-01 +7.447048e-02 +8.112539e-02 +1.708555e-03 -7.657952e-04 -4.088076e-03 -1.236663e-02
         -4.088076e-03 -1.236663e-02 +1.708555e-03 -7.657952e-04 +7.447048e-02 +8.112539e-02 -2.669307e-01 -3.835706e-01
         +1.708555e-03 -7.657952e-04 -4.088076e-03 -1.236663e-02 -2.669307e-01 -3.835706e-01 +7.447048e-02 +8.112539e-02
15.140563 +8.020192e-02 +8.476442e-02 -3.570387e-01 -2.996132e-01 -4.252802e-03 -1.234260e-02 +1.455023e-03 -1.188933e-03
         -3.570387e-01 -2.996132e-01 +8.020192e-02 +8.476442e-02 +1.455023e-03 -1.188933e-03 -4.252802e-03 -1.234260e-02
         -4.252802e-03 -1.234260e-02 +1.455023e-03 -1.188933e-03 +8.020192e-02 +8.476442e-02 -3.570387e-01 -2.996132e-01
         +1.455023e-03 -1.188933e-03 -4.252802e-03 -1.234260e-02 -3.570387e-01 -2.996132e-01 +8.020192e-02 +8.476442e-02
15.240500 +8.617084e-02 +8.799921e-02 -4.219047e-01 -1.952648e-01 -4.417482e-03 -1.231614e-02 +1.098644e-03 -1.532512e-03
         -4.219047e-01 -1.952648e-01 +8.617084e-02 +8.799921e-02 +1.098644e-03 -1.532512e-03 -4.417482e-03 -1.231614e-02
         -4.417482e-03 -1.231614e-02 +1.098644e-03 -1.532512e-03 +8.617084e-02 +8.799921e-02 -4.219047e-01 -1.952648e-01
         +1.098644e-03 -1.532512e-03 -4.417482e-03 -1.231614e-02 -4.219047e-01 -1.952648e-01 +8.617084e-02 +8.799921e-02
15.340438 +9.234879e-02 +9.081433e-02 -4.571394e-01 -7.785883e-02 -4.582077e-03 -1.228725e-02 +6.634669e-04 -1.772085e-03
         -4.571394e-01 -7.785883e-02 +9.234879e-02 +9.081433e-02 +6.634669e-04 -1.772085e-03 -4.582077e-03 -1.228725e-02
         -4.582077e-03 -1.228725e-02 +6.634669e-04 -1.772085e-03 +9.234879e-02 +9.081433e-02 -4.571394e-01 -7.785883e-02
         +6.634669e-04 -1.772085e-03 -4.582077e-03 -1.228725e-02 -4.571394e-01 -7.785883e-02 +9.234879e-02 +9.081433e-02
15.440375 +9.870630e-02 +9.319635e-02 -4.604252e-01 +4.439396e-02 -4.746552e-03 -1.225593e-02 +1.791927e-04 -1.890273e-03
         -4.604252e-01 +4.439396e-02 +9.870630e-02 +9.319635e-02 +1.791927e-04 -1.890273e-03 -4.746552e-03 -1.225593e-02
         -4.746552e-03 -1.225593e-02 +1.791927e-04 -1.890273e-03 +9.870630e-02 +9.319635e-02 -4.604252e-01 +4.439396e-02
         +1.791927e-04 -1.890273e-03 -4.746552e-03 -1.225593e-02 -4.604252e-01 +4.439396e-02 +9.870630e-02 +9.319635e-02
15.540313 +1.052130e-01 +9.513392e-02 -4.316710e-01 +1.629769e-01 -4.910868e-03 -1.222218e-02 -3.208560e-04 -1.878022e-03
         -4.316710e-01 +1.629769e-01 +1.052130e-01 +9.513392e-02 -3.208560e-04 -1.878022e-03 -4.910868e-03 -1.222218e-02
         -4.910868e-03 -1.222218e-02 -3.208560e-04 -1.878022e-03 +1.052130e-01 +9.513392e-02 -4.316710e-01 +1.629769e-01
         -3.208560e-04 -1.878022e-03 -4.910868e-03 -1.222218e-02 -4.316710e-01 +1.629769e-01 +1.052130e-01 +9.513392e-02
15.640250 +1.118380e-01 +9.661779e-02 -3.730121e-01 +2.696591e-01 -5.074989e-03 -1.218600e-02 -8.020308e-04 -1.735292e-03
         -3.730121e-01 +2.696591e-01 +1.118380e-01 +9.661779e-02 -8.020308e-04 -1.735292e-03 -5.074989e-03 -1.218600e-02
         -5.074989e-03 -1.218600e-02 -8.020308e-04 -1.735292e-03 +1.118380e-01 +9.661779e-02 -3.730121e-01 +2.696591e-01
         -8.020308e-04 -1.735292e-03 -5.074989e-03 -1.218600e-02 -3.730121e-01 +2.696591e-01 +1.118380e-01 +9.661779e-02
15.740188 +1.185496e-01 +9.764089e-02 -2.886551e-01 +3.570667e-01 -5.238880e-03 -1.214741e-02 -1.230762e-03 -1.471121e-03
         -2.886551e-01 +3.570667e-01 +1.185496e-01 +9.764089e-02 -1.230762e-03 -1.471121e-03 -5.238880e-03 -1.214741e-02
         -5.238880e-03 -1.214741e-02 -1.230762e-03 -1.471121e-03 +1.185496e-01 +9.764089e-02 -2.886551e-01 +3.570667e-01
         -1.230762e-03 -1.471121e-03 -5.238880e-03 -1.214741e-02 -2.886551e-01 +3.570667e-01 +1.185496e-01 +9.764089e-02
15.840125 +1.253157e-01 +9.819834e-02 -1.845805e-01 +4.191928e-01 -5.402502e-03 -1.210640e-02 -1.576903e-03 -1.103056e-03
         -1.845805e-01 +4.191928e-01 +1.253157e-01 +9.819834e-02 -1.576903e-03 -1.103056e-03 -5.402502e-03 -1.210640e-02
         -5.402502e-03 -1.210640e-02 -1.576903e-03 -1.103056e-03 +1.253157e-01 +9.819834e-02 -1.845805e-01 +4.191928e-01
         -1.576903e-03 -1.103056e-03 -5.402502e-03 -1.210640e-02 -1.845805e-01 +4.191928e-01 +1.253157e-01 +9.819834e-02
15.940063 +1.321043e-01 +9.828748e-02 -6.812110e-02 +4.518119e-01 -5.565820e-03 -1.206298e-02 -1.815853e-03 -6.559875e-04
         -6.812110e-02 +4.518119e-01 +1.321043e-01 +9.828748e-02 -1.815853e-03 -6.559875e-04 -5.565820e-03 -1.206298e-02
         -5.565820e-03 -1.206298e-02 -1.815853e-03 -6.559875e-04 +1.321043e-01 +9.828748e-02 -6.812110e-02 +4.518119e-01
         -1.815853e-03 -6.559875e-04 -5.565820e-03 -1.206298e-02 -6.812110e-02 +4.518119e-01 +1.321043e-01 +9.828748e-02
16.040000 +1.388827e-01 +9.790788e-02 +5.255179e-02 +4.527701e-01 -5.728798e-03 -1.201715e-02 -1.930305e-03 -1.604638e-04
         +5.255179e-02 +4.527701e-01 +1.388827e-01 +9.790788e-02 -1.930305e-03 -1.604638e-04 -5.728798e-03 -1.201715e-02
         -5.728798e-03 -1.201715e-02 -1.930305e-03 -1.604638e-04 +1.388827e-01 +9.790788e-02 +5.255179e-02 +4.527701e-01
         -1.930305e-03 -1.604638e-04 -5.728798e-03 -1.201715e-02 +5.255179e-02 +4.527701e-01 +1.388827e-01 +9.790788e-02
16.139938 +1.456189e-01 +9.706136e-02 +1.690008e-01 +4.221296e-01 -5.891399e-03 -1.196892e-02 -1.911501e-03 +3.493968e-04
         +1.690008e-01 +4.221296e-01 +1.456189e-01 +9.706136e-02 -1.911501e-03 +3.493968e-04 -5.891399e-03 -1.196892e-02
         -5.891399e-03 -1.196892e-02 -1.911501e-03 +3.493968e-04 +1.456189e-01 +9.706136e-02 +1.690008e-01 +4.221296e-01
         -1.911501e-03 +3.493968e-04 -5.891399e-03 -1.196892e-02 +1.690008e-01 +4.221296e-01 +1.456189e-01 +9.706136e-02
16.239875 +1.522805e-01 +9.575195e-02 +2.731123e-01 +3.621585e-01 -6.053588e-03 -1.191830e-02 -1.759892e-03 +8.382606e-04
         +2.731123e-01 +3.621585e-01 +1.522805e-01 +9.575195e-02 -1.759892e-03 +8.382606e-04 -6.053588e-03 -1.191830e-02
         -6.053588e-03 -1.191830e-02 -1.759892e-03 +8.382606e-04 +1.522805e-01 +9.575195e-02 +2.731123e-01 +3.621585e-01
         -1.759892e-03 +8.382606e-04 -6.053588e-03 -1.191830e-02 +2.731123e-01 +3.621585e-01 +1.522805e-01 +9.575195e-02
16.339813 +1.588359e-01 +9.398589e-02 +3.576624e-01 +2.771675e-01 -6.215329e-03 -1.186529e-02 -1.485169e-03 +1.272029e-03
         +3.576624e-01 +2.771675e-01 +1.588359e-01 +9.398589e-02 -1.485169e-03 +1.272029e-03 -6.215329e-03 -1.186529e-02
         -6.215329e-03 -1.186529e-02 -1.485169e-03 +1.272029e-03 +1.588359e-01 +9.398589e-02 +3.576624e-01 +2.771675e-01
         -1.485169e-03 +1.272029e-03 -6.215329e-03 -1.186529e-02 +3.576624e-01 +2.771675e-01 +1.588359e-01 +9.398589e-02
16.439750 +1.652537e-01 +9.177162e-02 +4.168204e-01 +1.732020e-01 -6.376586e-03 -1.180990e-02 -1.105646e-03 +1.620221e-03
         +4.168204e-01 +1.732020e-01 +1.652537e-01 +9.177162e-02 -1.105646e-03 +1.620221e-03 -6.376586e-03 -1.180990e-02
         -6.376586e-03 -1.180990e-02 -1.105646e-03 +1.620221e-03 +1.652537e-01 +9.177162e-02 +4.168204e-01 +1.732020e-01
         -1.105646e-03 +1.620221e-03 -6.376586e-03 -1.180990e-02 +4.168204e-01 +1.732020e-01 +1.652537e-01 +9.177162e-02
16.539687 +1.715035e-01 +8.911968e-02 +4.465534e-01 +5.761481e-02 -6.537324e-03 -1.175213e-02 -6.470372e-04 +1.858116e-03
         +4.465534e-01 +5.761481e-02 +1.715035e-01 +8.911968e-02 -6.470372e-04 +1.858116e-03 -6.537324e-03 -1.175213e-02
         -6.537324e-03 -1.175213e-02 -6.470372e-04 +1.858116e-03 +1.715035e-01 +8.911968e-02 +4.465534e-01 +5.761481e-02
         -6.470372e-04 +1.858116e-03 -6.537324e-03 -1.175213e-02 +4.465534e-01 +5.761481e-02 +1.715035e-01 +8.911968e-02
16.639625 +1.775553e-01 +8.604273e-02 +4.449041e-01 -6.145342e-02 -6.697508e-03 -1.169200e-02 -1.407143e-04 +1.968510e-03
         +4.449041e-01 -6.145342e-02 +1.775553e-01 +8.604273e-02 -1.407143e-04 +1.968510e-03 -6.697508e-03 -1.169200e-02
         -6.697508e-03 -1.169200e-02 -1.407143e-04 +1.968510e-03 +1.775553e-01 +8.604273e-02 +4.449041e-01 -6.145342e-02
         -1.407143e-04 +1.968510e-03 -6.697508e-03 -1.169200e-02 +4.449041e-01 -6.145342e-02 +1.775553e-01 +8.604273e-02
16.739563 +1.833803e-01 +8.255545e-02 +4.121228e-01 -1.756473e-01 -6.857101e-03 -1.162951e-02 +3.784421e-04 +1.942960e-03
         +4.121228e-01 -1.756473e-01 +1.833803e-01 +8.255545e-02 +3.784421e-04 +1.942960e-03 -6.857101e-03 -1.162951e-02
         -6.857101e-03 -1.162951e-02 +3.784421e-04 +1.942960e-03 +1.833803e-01 +8.255545e-02 +4.121228e-01 -1.756473e-01
         +3.784421e-04 +1.942960e-03 -6.857101e-03 -1.162951e-02 +4.121228e-01 -1.756473e-01 +1.833803e-01 +8.255545e-02
16.839500 +1.889507e-01 +7.867445e-02 +3.506428e-01 -2.769845e-01 -7.016071e-03 -1.156468e-02 +8.744491e-04 +1.782421e-03
         +3.506428e-01 -2.769845e-01 +1.889507e-01 +7.867445e-02 +8.744491e-04 +1.782421e-03 -7.016071e-03 -1.156468e-02
         -7.016071e-03 -1.156468e-02 +8.744491e-04 +1.782421e-03 +1.889507e-01 +7.867445e-02 +3.506428e-01 -2.769845e-01
         +8.744491e-04 +1.782421e-03 -7.016071e-03 -1.156468e-02 +3.506428e-01 -2.769845e-01 +1.889507e-01 +7.867445e-02
16.939438 +1.942400e-01 +7.441825e-02 +2.649035e-01 -3.584160e-01 -7.174381e-03 -1.149750e-02 +1.312718e-03 +1.497240e-03
         +2.649035e-01 -3.584160e-01 +1.942400e-01 +7.441825e-02 +1.312718e-03 +1.497240e-03 -7.174381e-03 -1.149750e-02
         -7.174381e-03 -1.149750e-02 +1.312718e-03 +1.497240e-03 +1.942400e-01 +7.441825e-02 +2.649035e-01 -3.584160e-01
         +1.312718e-03 +1.497240e-03 -7.174381e-03 -1.149750e-02 +2.649035e-01 -3.584160e-01 +1.942400e-01 +7.441825e-02
17.039375 +1.992230e-01 +6.980715e-02 +1.610308e-01 -4.143188e-01 -7.331997e-03 -1.142800e-02 +1.662469e-03 +1.106488e-03
         +1.610308e-01 -4.143188e-01 +1.992230e-01 +6.980715e-02 +1.662469e-03 +1.106488e-03 -7.331997e-03 -1.142800e-02
         -7.331997e-03 -1.142800e-02 +1.662469e-03 +1.106488e-03 +1.992230e-01 +6.980715e-02 +1.610308e-01 -4.143188e-01
         +1.662469e-03 +1.106488e-03 -7.331997e-03 -1.142800e-02 +1.610308e-01 -4.143188e-01 +1.992230e-01 +6.980715e-02
17.139313 +2.038758e-01 +6.486314e-02 +4.640108e-02 -4.408878e-01 -7.488885e-03 -1.135618e-02 +1.898897e-03 +6.366872e-04
         +4.640108e-02 -4.408878e-01 +2.038758e-01 +6.486314e-02 +1.898897e-03 +6.366872e-04 -7.488885e-03 -1.135618e-02
         -7.488885e-03 -1.135618e-02 +1.898897e-03 +6.366872e-04 +2.038758e-01 +6.486314e-02 +4.640108e-02 -4.408878e-01
         +1.898897e-03 +6.366872e-04 -7.488885e-03 -1.135618e-02 +4.640108e-02 -4.408878e-01 +2.038758e-01 +6.486314e-02
17.239250 +2.081763e-01 +5.960979e-02 -7.088402e-02 -4.363974e-01 -7.645011e-03 -1.128205e-02 +2.004928e-03 +1.200066e-04
         -7.088402e-02 -4.363974e-01 +2.081763e-01 +5.960979e-02 +2.004928e-03 +1.200066e-04 -7.645011e-03 -1.128205e-02
         -7.645011e-03 -1.128205e-02 +2.004928e-03 +1.200066e-04 +2.081763e-01 +5.960979e-02 -7.088402e-02 -4.363974e-01
         +2.004928e-03 +1.200066e-04 -7.645011e-03 -1.128205e-02 -7.088402e-02 -4.363974e-01 +2.081763e-01 +5.960979e-02
17.339188 +2.121039e-01 +5.407217e-02 -1.825712e-01 -4.013155e-01 -7.800341e-03 -1.120562e-02 +1.972452e-03 -4.079421e-04
         -1.825712e-01 -4.013155e-01 +2.121039e-01 +5.407217e-02 +1.972452e-03 -4.079421e-04 -7.800341e-03 -1.120562e-02
         -7.800341e-03 -1.120562e-02 +1.972452e-03 -4.079421e-04 +2.121039e-01 +5.407217e-02 -1.825712e-01 -4.013155e-01
         +1.972452e-03 -4.079421e-04 -7.800341e-03 -1.120562e-02 -1.825712e-01 -4.013155e-01 +2.121039e-01 +5.407217e-02
17.439125 +2.156401e-01 +4.827667e-02 -2.808387e-01 -3.382624e-01 -7.954840e-03 -1.112691e-02 +1.802943e-03 -9.105624e-04
         -2.808387e-01 -3.382624e-01 +2.156401e-01 +4.827667e-02 +1.802943e-03 -9.105624e-04 -7.954840e-03 -1.112691e-02
         -7.954840e-03 -1.112691e-02 +1.802943e-03 -9.105624e-04 +2.156401e-01 +4.827667e-02 -2.808387e-01 -3.382624e-01
         +1.802943e-03 -9.105624e-04 -7.954840e-03 -1.112691e-02 -2.808387e-01 -3.382624e-01 +2.156401e-01 +4.827667e-02
17.539062 +2.187678e-01 +4.225094e-02 -3.588474e-01 -2.518163e-01 -8.108476e-03 -1.104593e-02 +1.507403e-03 -1.352812e-03
         -3.588474e-01 -2.518163e-01 +2.187678e-01 +4.225094e-02 +1.507403e-03 -1.352812e-03 -8.108476e-03 -1.104593e-02
         -8.108476e-03 -1.104593e-02 +1.507403e-03 -1.352812e-03 +2.187678e-01 +4.225094e-02 -3.588474e-01 -2.518163e-01
         +1.507403e-03 -1.352812e-03 -8.108476e-03 -1.104593e-02 -3.588474e-01 -2.518163e-01 +2.187678e-01 +4.225094e-02
17.639000 +2.214721e-01 +3.602371e-02 -4.112191e-01 -1.481821e-01 -8.261215e-03 -1.096268e-02 +1.105653e-03 -1.703650e-03
         -4.112191e-01 -1.481821e-01 +2.214721e-01 +3.602371e-02 +1.105653e-03 -1.703650e-03 -8.261215e-03 -1.096268e-02
         -8.261215e-03 -1.096268e-02 +1.105653e-03 -1.703650e-03 +2.214721e-01 +3.602371e-02 -4.112191e-01 -1.481821e-01
         +1.105653e-03 -1.703650e-03 -8.261215e-03 -1.096268e-02 -4.112191e-01 -1.481821e-01 +2.214721e-01 +3.602371e-02
17.738937 +2.237402e-01 +2.962469e-02 -4.344108e-01 -3.474446e-02 -8.413025e-03 -1.087720e-02 +6.250054e-04 -1.938217e-03
         -4.344108e-01 -3.474446e-02 +2.237402e-01 +2.962469e-02 +6.250054e-04 -1.938217e-03 -8.413025e-03 -1.087720e-02
         -8.413025e-03 -1.087720e-02 +6.250054e-04 -1.938217e-03 +2.237402e-01 +2.962469e-02 -4.344108e-01 -3.474446e-02
         +6.250054e-04 -1.938217e-03 -8.413025e-03 -1.087720e-02 -4.344108e-01 -3.474446e-02 +2.237402e-01 +2.962469e-02
17.838875 +2.255613e-01 +2.308438e-02 -4.269561e-01 +8.045940e-02 -8.563871e-03 -1.078947e-02 +9.840050e-05 -2.039595e-03
         -4.269561e-01 +8.045940e-02 +2.255613e-01 +2.308438e-02 +9.840050e-05 -2.039595e-03 -8.563871e-03 -1.078947e-02
         -8.563871e-03 -1.078947e-02 +9.840050e-05 -2.039595e-03 +2.255613e-01 +2.308438e-02 -4.269561e-01 +8.045940e-02
         +9.840050e-05 -2.039595e-03 -8.563871e-03 -1.078947e-02 -4.269561e-01 +8.045940e-02 +2.255613e-01 +2.308438e-02
17.938813 +2.269267e-01 +1.643399e-02 -3.895584e-01 +1.893121e-01 -8.713722e-03 -1.069953e-02 -4.378492e-04 -2.000031e-03
         -3.895584e-01 +1.893121e-01 +2.269267e-01 +1.643399e-02 -4.378492e-04 -2.000031e-03 -8.713722e-03 -1.069953e-02
         -8.713722e-03 -1.069953e-02 -4.378492e-04 -2.000031e-03 +2.269267e-01 +1.643399e-02 -3.895584e-01 +1.893121e-01
         -4.378492e-04 -2.000031e-03 -8.713722e-03 -1.069953e-02 -3.895584e-01 +1.893121e-01 +2.269267e-01 +1.643399e-02
18.038750 +2.278298e-01 +9.705219e-03 -3.250296e-01 +2.841910e-01 -8.862544e-03 -1.060738e-02 -9.465681e-04 -1.821522e-03
         -3.250296e-01 +2.841910e-01 +2.278298e-01 +9.705219e-03 -9.465681e-04 -1.821522e-03 -8.862544e-03 -1.060738e-02
         -8.862544e-03 -1.060738e-02 -9.465681e-04 -1.821522e-03 +2.278298e-01 +9.705219e-03 -3.250296e-01 +2.841910e-01
         -9.465681e-04 -1.821522e-03 -8.862544e-03 -1.060738e-02 -3.250296e-01 +2.841910e-01 +2.278298e-01 +9.705219e-03
18.138688 +2.282663e-01 +2.930166e-03 -2.380792e-01 +3.585044e-01 -9.010307e-03 -1.051304e-02 -1.392297e-03 -1.515728e-03
         -2.380792e-01 +3.585044e-01 +2.282663e-01 +2.930166e-03 -1.392297e-03 -1.515728e-03 -9.010307e-03 -1.051304e-02
         -9.010307e-03 -1.051304e-02 -1.392297e-03 -1.515728e-03 +2.282663e-01 +2.930166e-03 -2.380792e-01 +3.585044e-01
         -1.392297e-03 -1.515728e-03 -9.010307e-03 -1.051304e-02 -2.380792e-01 +3.585044e-01 +2.282663e-01 +2.930166e-03
18.238625 +2.282342e-01 -3.858861e-03 -1.349698e-01 +4.071528e-01 -9.156978e-03 -1.041653e-02 -1.743767e-03 -1.103212e-03
         -1.349698e-01 +4.071528e-01 +2.282342e-01 -3.858861e-03 -1.743767e-03 -1.103212e-03 -9.156978e-03 -1.041653e-02
         -9.156978e-03 -1.041653e-02 -1.743767e-03 -1.103212e-03 +2.282342e-01 -3.858861e-03 -1.349698e-01 +4.071528e-01
         -1.743767e-03 -1.103212e-03 -9.156978e-03 -1.041653e-02 -1.349698e-01 +4.071528e-01 +2.282342e-01 -3.858861e-03
18.338563 +2.277337e-01 -1.062949e-02 -2.306386e-02 +4.268799e-01 -9.302525e-03 -1.031786e-02 -1.976096e-03 -6.120573e-04
         -2.306386e-02 +4.268799e-01 +2.277337e-01 -1.062949e-02 -1.976096e-03 -6.120573e-04 -9.302525e-03 -1.031786e-02
         -9.302525e-03 -1.031786e-02 -1.976096e-03 -6.120573e-04 +2.277337e-01 -1.062949e-02 -2.306386e-02 +4.268799e-01
         -1.976096e-03 -6.120573e-04 -9.302525e-03 -1.031786e-02 -2.306386e-02 +4.268799e-01 +2.277337e-01 -1.062949e-02
18.438500 +2.267670e-01 -1.734942e-02 +8.970399e-02 +4.164918e-01 -9.446917e-03 -1.021704e-02 -2.072549e-03 -7.595346e-05
         +8.970399e-02 +4.164918e-01 +2.267670e-01 -1.734942e-02 -2.072549e-03 -7.595346e-05 -9.446917e-03 -1.021704e-02
         -9.446917e-03 -1.021704e-02 -2.072549e-03 -7.595346e-05 +2.267670e-01 -1.734942e-02 +8.970399e-02 +4.164918e-01
         -2.072549e-03 -7.595346e-05 -9.446917e-03 -1.021704e-02 +8.970399e-02 +4.164918e-01 +2.267670e-01 -1.734942e-02
18.538438 +2.253389e-01 -2.398661e-02 +1.953928e-01 +3.769270e-01 -9.590123e-03 -1.011410e-02 -2.025745e-03 +4.681177e-04
         +1.953928e-01 +3.769270e-01 +2.253389e-01 -2.398661e-02 -2.025745e-03 +4.681177e-04 -9.590123e-03 -1.011410e-02
         -9.590123e-03 -1.011410e-02 -2.025745e-03 +4.681177e-04 +2.253389e-01 -2.398661e-02 +1.953928e-01 +3.769270e-01
         -2.025745e-03 +4.681177e-04 -9.590123e-03 -1.011410e-02 +1.953928e-01 +3.769270e-01 +2.253389e-01 -2.398661e-02
18.638375 +2.234560e-01 -3.050941e-02 +2.866171e-01 +3.111752e-01 -9.732112e-03 -1.000904e-02 -1.838216e-03 +9.824354e-04
         +2.866171e-01 +3.111752e-01 +2.234560e-01 -3.050941e-02 -1.838216e-03 +9.824354e-04 -9.732112e-03 -1.000904e-02
         -9.732112e-03 -1.000904e-02 -1.838216e-03 +9.824354e-04 +2.234560e-01 -3.050941e-02 +2.866171e-01 +3.111752e-01
         -1.838216e-03 +9.824354e-04 -9.732112e-03 -1.000904e-02 +2.866171e-01 +3.111752e-01 +2.234560e-01 -3.050941e-02
18.738312 +2.211275e-01 -3.688671e-02 +3.570651e-01 +2.240510e-01 -9.872854e-03 -9.901897e-03 -1.522278e-03 +1.431158e-03
         +3.570651e-01 +2.240510e-01 +2.211275e-01 -3.688671e-02 -1.522278e-03 +1.431158e-03 -9.872854e-03 -9.901897e-03
         -9.872854e-03 -9.901897e-03 -1.522278e-03 +1.431158e-03 +2.211275e-01 -3.688671e-02 +3.570651e-01 +2.240510e-01
         -1.522278e-03 +1.431158e-03 -9.872854e-03 -9.901897e-03 +3.570651e-01 +2.240510e-01 +2.211275e-01 -3.688671e-02
18.838250 +2.183644e-01 -4.308809e-02 +4.019369e-01 +1.218391e-01 -1.001232e-02 -9.792674e-03 -1.099229e-03 +1.782823e-03
         +4.019369e-01 +1.218391e-01 +2.183644e-01 -4.308809e-02 -1.099229e-03 +1.782823e-03 -1.001232e-02 -9.792674e-03
         -1.001232e-02 -9.792674e-03 -1.099229e-03 +1.782823e-03 +2.183644e-01 -4.308809e-02 +4.019369e-01 +1.218391e-01
         -1.099229e-03 +1.782823e-03 -1.001232e-02 -9.792674e-03 +4.019369e-01 +1.218391e-01 +2.183644e-01 -4.308809e-02
18.938188 +2.151799e-01 -4.908399e-02 +4.182720e-01 +1.183908e-02 -1.015047e-02 -9.681394e-03 -5.979057e-04 +2.012555e-03
         +4.182720e-01 +1.183908e-02 +2.151799e-01 -4.908399e-02 -5.979057e-04 +2.012555e-03 -1.015047e-02 -9.681394e-03
         -1.015047e-02 -9.681394e-03 -5.979057e-04 +2.012555e-03 +2.151799e-01 -4.908399e-02 +4.182720e-01 +1.183908e-02
         -5.979057e-04 +2.012555e-03 -1.015047e-02 -9.681394e-03 +4.182720e-01 +1.183908e-02 +2.151799e-01 -4.908399e-02
19.038125 +2.115892e-01 -5.484581e-02 +4.051430e-01 -9.815900e-02 -1.028729e-02 -9.568075e-03 -5.272070e-05 +2.103826e-03
         +4.051430e-01 -9.815900e-02 +2.115892e-01 -5.484581e-02 -5.272070e-05 +2.103826e-03 -1.028729e-02 -9.568075e-03
         -1.028729e-02 -9.568075e-03 -5.272070e-05 +2.103826e-03 +2.115892e-01 -5.484581e-02 +4.051430e-01 -9.815900e-02
         -5.272070e-05 +2.103826e-03 -1.028729e-02 -9.568075e-03 +4.051430e-01 -9.815900e-02 +2.115892e-01 -5.484581e-02
19.138063 +2.076093e-01 -6.034606e-02 +3.637048e-01 -2.004284e-01 -1.042274e-02 -9.452736e-03 +4.987038e-04 +2.049644e-03
         +3.637048e-01 -2.004284e-01 +2.076093e-01 -6.034606e-02 +4.987038e-04 +2.049644e-03 -1.042274e-02 -9.452736e-03
         -1.042274e-02 -9.452736e-03 +4.987038e-04 +2.049644e-03 +2.076093e-01 -6.034606e-02 +3.637048e-01 -2.004284e-01
         +4.987038e-04 +2.049644e-03 -1.042274e-02 -9.452736e-03 +3.637048e-01 -2.004284e-01 +2.076093e-01 -6.034606e-02
19.238000 +2.032594e-01 -6.555852e-02 +2.970941e-01 -2.878502e-01 -1.055679e-02 -9.335396e-03 +1.018135e-03 +1.853083e-03
         +2.970941e-01 -2.878502e-01 +2.032594e-01 -6.555852e-02 +1.018135e-03 +1.853083e-03 -1.055679e-02 -9.335396e-03
         -1.055679e-02 -9.335396e-03 +1.018135e-03 +1.853083e-03 +2.032594e-01 -6.555852e-02 +2.970941e-01 -2.878502e-01
         +1.018135e-03 +1.853083e-03 -1.055679e-02 -9.335396e-03 +2.970941e-01 -2.878502e-01 +2.032594e-01 -6.555852e-02
19.337938 +1.985600e-01 -7.045834e-02 +2.101916e-01 -3.544105e-01 -1.068942e-02 -9.216074e-03 +1.469381e-03 +1.527119e-03
         +2.101916e-01 -3.544105e-01 +1.985600e-01 -7.045834e-02 +1.469381e-03 +1.527119e-03 -1.068942e-02 -9.216074e-03
         -1.068942e-02 -9.216074e-03 +1.469381e-03 +1.527119e-03 +1.985600e-01 -7.045834e-02 +2.101916e-01 -3.544105e-01
         +1.469381e-03 +1.527119e-03 -1.068942e-02 -9.216074e-03 +2.101916e-01 -3.544105e-01 +1.985600e-01 -7.045834e-02
19.437875 +1.935337e-01 -7.502213e-02 +1.092616e-01 -3.956133e-01 -1.082060e-02 -9.094791e-03 +1.820821e-03 +1.093770e-03
         +1.092616e-01 -3.956133e-01 +1.935337e-01 -7.502213e-02 +1.820821e-03 +1.093770e-03 -1.082060e-02 -9.094791e-03
         -1.082060e-02 -9.094791e-03 +1.820821e-03 +1.093770e-03 +1.935337e-01 -7.502213e-02 +1.092616e-01 -3.956133e-01
         +1.820821e-03 +1.093770e-03 -1.082060e-02 -9.094791e-03 +1.092616e-01 -3.956133e-01 +1.935337e-01 -7.502213e-02
19.537813 +1.882044e-01 -7.922814e-02 +1.498626e-03 -4.087833e-01 -1.095029e-02 -8.971567e-03 +2.047613e-03 +5.826113e-04
         +1.498626e-03 -4.087833e-01 +1.882044e-01 -7.922814e-02 +2.047613e-03 +5.826113e-04 -1.095029e-02 -8.971567e-03
         -1.095029e-02 -8.971567e-03 +2.047613e-03 +5.826113e-04 +1.882044e-01 -7.922814e-02 +1.498626e-03 -4.087833e-01
         +2.047613e-03 +5.826113e-04 -1.095029e-02 -8.971567e-03 +1.498626e-03 -4.087833e-01 +1.882044e-01 -7.922814e-02
19.637750 +1.825976e-01 -8.305631e-02 -1.054878e-01 -3.932369e-01 -1.107847e-02 -8.846422e-03 +2.133459e-03 +2.875529e-05
         -1.054878e-01 -3.932369e-01 +1.825976e-01 -8.305631e-02 +2.133459e-03 +2.875529e-05 -1.107847e-02 -8.846422e-03
         -1.107847e-02 -8.846422e-03 +2.133459e-03 +2.875529e-05 +1.825976e-01 -8.305631e-02 -1.054878e-01 -3.932369e-01
         +2.133459e-03 +2.875529e-05 -1.107847e-02 -8.846422e-03 -1.054878e-01 -3.932369e-01 +1.825976e-01 -8.305631e-02
19.737688 +1.767399e-01 -8.648839e-02 -2.042118e-01 -3.503106e-01 -1.120511e-02 -8.719379e-03 +2.071773e-03 -5.295653e-04
         -2.042118e-01 -3.503106e-01 +1.767399e-01 -8.648839e-02 +2.071773e-03 -5.295653e-04 -1.120511e-02 -8.719379e-03
         -1.120511e-02 -8.719379e-03 +2.071773e-03 -5.295653e-04 +1.767399e-01 -8.648839e-02 -2.042118e-01 -3.503106e-01
         +2.071773e-03 -5.295653e-04 -1.120511e-02 -8.719379e-03 -2.042118e-01 -3.503106e-01 +1.767399e-01 -8.648839e-02
19.837625 +1.706592e-01 -8.950800e-02 -2.878357e-01 -2.832478e-01 -1.133019e-02 -8.590457e-03 +1.866179e-03 -1.053637e-03
         -2.878357e-01 -2.832478e-01 +1.706592e-01 -8.950800e-02 +1.866179e-03 -1.053637e-03 -1.133019e-02 -8.590457e-03
         -1.133019e-02 -8.590457e-03 +1.866179e-03 -1.053637e-03 +1.706592e-01 -8.950800e-02 -2.878357e-01 -2.832478e-01
         +1.866179e-03 -1.053637e-03 -1.133019e-02 -8.590457e-03 -2.878357e-01 -2.832478e-01 +1.706592e-01 -8.950800e-02
19.937563 +1.643847e-01 -9.210074e-02 -3.506428e-01 -1.969519e-01 -1.145368e-02 -8.459679e-03 +1.530309e-03 -1.506955e-03
         -3.506428e-01 -1.969519e-01 +1.643847e-01 -9.210074e-02 +1.530309e-03 -1.506955e-03 -1.145368e-02 -8.459679e-03
         -1.145368e-02 -8.459679e-03 +1.530309e-03 -1.506955e-03 +1.643847e-01 -9.210074e-02 -3.506428e-01 -1.969519e-01
         +1.530309e-03 -1.506955e-03 -1.145368e-02 -8.459679e-03 -3.506428e-01 -1.969519e-01 +1.643847e-01 -9.210074e-02
20.037500 +1.579462e-01 -9.425426e-02 -3.884273e-01 -9.762609e-02 -1.157555e-02 -8.327067e-03 +1.086895e-03 -1.857764e-03
         -3.884273e-01 -9.762609e-02 +1.579462e-01 -9.425426e-02 +1.086895e-03 -1.857764e-03 -1.157555e-02 -8.327067e-03
         -1.157555e-02 -8.327067e-03 +1.086895e-03 -1.857764e-03 +1.579462e-01 -9.425426e-02 -3.884273e-01 -9.762609e-02
         +1.086895e-03 -1.857764e-03 -1.157555e-02 -8.327067e-03 -3.884273e-01 -9.762609e-02 +1.579462e-01 -9.425426e-02
20.137438 +1.513744e-01 -9.595827e-02 -3.987729e-01 +7.674253e-03 -1.169577e-02 -8.192644e-03 +5.662325e-04 -2.081289e-03
         -3.987729e-01 +7.674253e-03 +1.513744e-01 -9.595827e-02 +5.662325e-04 -2.081289e-03 -1.169577e-02 -8.192644e-03
         -1.169577e-02 -8.192644e-03 +5.662325e-04 -2.081289e-03 +1.513744e-01 -9.595827e-02 -3.987729e-01 +7.674253e-03
         +5.662325e-04 -2.081289e-03 -1.169577e-02 -8.192644e-03 -3.987729e-01 +7.674253e-03 +1.513744e-01 -9.595827e-02
20.237375 +1.447007e-01 -9.720465e-02 -3.812034e-01 +1.115437e-01 -1.181432e-02 -8.056432e-03 +4.108257e-06 -2.161483e-03
         -3.812034e-01 +1.115437e-01 +1.447007e-01 -9.720465e-02 +4.108257e-06 -2.161483e-03 -1.181432e-02 -8.056432e-03
         -1.181432e-02 -8.056432e-03 +4.108257e-06 -2.161483e-03 +1.447007e-01 -9.720465e-02 -3.812034e-01 +1.115437e-01
         +4.108257e-06 -2.161483e-03 -1.181432e-02 -8.056432e-03 -3.812034e-01 +1.115437e-01 +1.447007e-01 -9.720465e-02
20.337312 +1.379569e-01 -9.798747e-02 -3.371959e-01 +2.067480e-01 -1.193117e-02 -7.918454e-03 -5.606622e-04 -2.092179e-03
         -3.371959e-01 +2.067480e-01 +1.379569e-01 -9.798747e-02 -5.606622e-04 -2.092179e-03 -1.193117e-02 -7.918454e-03
         -1.193117e-02 -7.918454e-03 -5.606622e-04 -2.092179e-03 +1.379569e-01 -9.798747e-02 -3.371959e-01 +2.067480e-01
         -5.606622e-04 -2.092179e-03 -1.193117e-02 -7.918454e-03 -3.371959e-01 +2.067480e-01 +1.379569e-01 -9.798747e-02
20.437250 +1.311751e-01 -9.830298e-02 -2.700577e-01 +2.867269e-01 -1.204630e-02 -7.778734e-03 -1.088917e-03 -1.877559e-03
         -2.700577e-01 +2.867269e-01 +1.311751e-01 -9.830298e-02 -1.088917e-03 -1.877559e-03 -1.204630e-02 -7.778734e-03
         -1.204630e-02 -7.778734e-03 -1.088917e-03 -1.877559e-03 +1.311751e-01 -9.830298e-02 -2.700577e-01 +2.867269e-01
         -1.088917e-03 -1.877559e-03 -1.204630e-02 -7.778734e-03 -2.700577e-01 +2.867269e-01 +1.311751e-01 -9.830298e-02
20.537188 +1.243878e-01 -9.814968e-02 -1.846761e-01 +3.460447e-01 -1.215968e-02 -7.637296e-03 -1.543867e-03 -1.531909e-03
         -1.846761e-01 +3.460447e-01 +1.243878e-01 -9.814968e-02 -1.543867e-03 -1.531909e-03 -1.215968e-02 -7.637296e-03
         -1.215968e-02 -7.637296e-03 -1.543867e-03 -1.531909e-03 +1.243878e-01 -9.814968e-02 -1.846761e-01 +3.460447e-01
         -1.543867e-03 -1.531909e-03 -1.215968e-02 -7.637296e-03 -1.846761e-01 +3.460447e-01 +1.243878e-01 -9.814968e-02
20.637125 +1.176272e-01 -9.752830e-02 -8.716175e-02 +3.807571e-01 -1.227129e-02 -7.494164e-03 -1.893657e-03 -1.078665e-03
         -8.716175e-02 +3.807571e-01 +1.176272e-01 -9.752830e-02 -1.893657e-03 -1.078665e-03 -1.227129e-02 -7.494164e-03
         -1.227129e-02 -7.494164e-03 -1.893657e-03 -1.078665e-03 +1.176272e-01 -9.752830e-02 -8.716175e-02 +3.807571e-01
         -1.893657e-03 -1.078665e-03 -1.227129e-02 -7.494164e-03 -8.716175e-02 +3.807571e-01 +1.176272e-01 -9.752830e-02
20.737063 +1.109256e-01 -9.644181e-02 +1.558932e-02 +3.886702e-01 -1.238111e-02 -7.349362e-03 -2.113603e-03 -5.488254e-04
         +1.558932e-02 +3.886702e-01 +1.109256e-01 -9.644181e-02 -2.113603e-03 -5.488254e-04 -1.238111e-02 -7.349362e-03
         -1.238111e-02 -7.349362e-03 -2.113603e-03 -5.488254e-04 +1.109256e-01 -9.644181e-02 +1.558932e-02 +3.886702e-01
         -2.113603e-03 -5.488254e-04 -1.238111e-02 -7.349362e-03 +1.558932e-02 +3.886702e-01 +1.109256e-01 -9.644181e-02
20.837000 +1.043149e-01 -9.489538e-02 +1.163834e-01 +3.694743e-01 -1.248910e-02 -7.202916e-03 -2.187930e-03 +2.117130e-05
         +1.163834e-01 +3.694743e-01 +1.043149e-01 -9.489538e-02 -2.187930e-03 +2.117130e-05 -1.248910e-02 -7.202916e-03
         -1.248910e-02 -7.202916e-03 -2.187930e-03 +2.117130e-05 +1.043149e-01 -9.489538e-02 +1.163834e-01 +3.694743e-01
         -2.187930e-03 +2.117130e-05 -1.248910e-02 -7.202916e-03 +1.163834e-01 +3.694743e-01 +1.043149e-01 -9.489538e-02
20.936937 +9.782679e-02 -9.289640e-02 +2.082315e-01 +3.247466e-01 -1.259525e-02 -7.054849e-03 -2.110905e-03 +5.919555e-04
         +2.082315e-01 +3.247466e-01 +9.782679e-02 -9.289640e-02 -2.110905e-03 +5.919555e-04 -1.259525e-02 -7.054849e-03
         -1.259525e-02 -7.054849e-03 -2.110905e-03 +5.919555e-04 +9.782679e-02 -9.289640e-02 +2.082315e-01 +3.247466e-01
         -2.110905e-03 +5.919555e-04 -1.259525e-02 -7.054849e-03 +2.082315e-01 +3.247466e-01 +9.782679e-02 -9.289640e-02
21.036875 +9.149208e-02 -9.045439e-02 +2.848324e-01 +2.578215e-01 -1.269953e-02 -6.905189e-03 -1.887274e-03 +1.123948e-03
         +2.848324e-01 +2.578215e-01 +9.149208e-02 -9.045439e-02 -1.887274e-03 +1.123948e-03 -1.269953e-02 -6.905189e-03
         -1.269953e-02 -6.905189e-03 -1.887274e-03 +1.123948e-03 +9.149208e-02 -9.045439e-02 +2.848324e-01 +2.578215e-01
         -1.887274e-03 +1.123948e-03 -1.269953e-02 -6.905189e-03 +2.848324e-01 +2.578215e-01 +9.149208e-02 -9.045439e-02
21.136813 +8.534102e-02 -8.758100e-02 +3.410023e-01 +1.735421e-01 -1.280193e-02 -6.753959e-03 -1.531974e-03 +1.580105e-03
         +3.410023e-01 +1.735421e-01 +8.534102e-02 -8.758100e-02 -1.531974e-03 +1.580105e-03 -1.280193e-02 -6.753959e-03
         -1.280193e-02 -6.753959e-03 -1.531974e-03 +1.580105e-03 +8.534102e-02 -8.758100e-02 +3.410023e-01 +1.735421e-01
         -1.531974e-03 +1.580105e-03 -1.280193e-02 -6.753959e-03 +3.410023e-01 +1.735421e-01 +8.534102e-02 -8.758100e-02
21.236750 +7.940294e-02 -8.428994e-02 +3.730224e-01 +7.790922e-02 -1.290240e-02 -6.601187e-03 -1.069137e-03 +1.928504e-03
         +3.730224e-01 +7.790922e-02 +7.940294e-02 -8.428994e-02 -1.069137e-03 +1.928504e-03 -1.290240e-02 -6.601187e-03
         -1.290240e-02 -6.601187e-03 -1.069137e-03 +1.928504e-03 +7.940294e-02 -8.428994e-02 +3.730224e-01 +7.790922e-02
         -1.069137e-03 +1.928504e-03 -1.290240e-02 -6.601187e-03 +3.730224e-01 +7.790922e-02 +7.940294e-02 -8.428994e-02
21.336688 +7.370616e-02 -8.059689e-02 +3.788815e-01 -2.234526e-02 -1.300095e-02 -6.446898e-03 -5.304443e-04 +2.144574e-03
         +3.788815e-01 -2.234526e-02 +7.370616e-02 -8.059689e-02 -5.304443e-04 +2.144574e-03 -1.300095e-02 -6.446898e-03
         -1.300095e-02 -6.446898e-03 -5.304443e-04 +2.144574e-03 +7.370616e-02 -8.059689e-02 +3.788815e-01 -2.234526e-02
         -5.304443e-04 +2.144574e-03 -1.300095e-02 -6.446898e-03 +3.788815e-01 -2.234526e-02 +7.370616e-02 -8.059689e-02
21.436625 +6.827784e-02 -7.651948e-02 +3.583983e-01 -1.202313e-01 -1.309754e-02 -6.291119e-03 +4.703613e-05 +2.212833e-03
         +3.583983e-01 -1.202313e-01 +6.827784e-02 -7.651948e-02 +4.703613e-05 +2.212833e-03 -1.309754e-02 -6.291119e-03
         -1.309754e-02 -6.291119e-03 +4.703613e-05 +2.212833e-03 +6.827784e-02 -7.651948e-02 +3.583983e-01 -1.202313e-01
         +4.703613e-05 +2.212833e-03 -1.309754e-02 -6.291119e-03 +3.583983e-01 -1.202313e-01 +6.827784e-02 -7.651948e-02
21.536563 +6.314388e-02 -7.207714e-02 +3.132161e-01 -2.089858e-01 -1.319214e-02 -6.133877e-03 +6.234083e-04 +2.127995e-03
         +3.132161e-01 -2.089858e-01 +6.314388e-02 -7.207714e-02 +6.234083e-04 +2.127995e-03 -1.319214e-02 -6.133877e-03
         -1.319214e-02 -6.133877e-03 +6.234083e-04 +2.127995e-03 +6.314388e-02 -7.207714e-02 +3.132161e-01 -2.089858e-01
         +6.234083e-04 +2.127995e-03 -1.319214e-02 -6.133877e-03 +3.132161e-01 -2.089858e-01 +6.314388e-02 -7.207714e-02
21.636500 +5.832875e-02 -6.729107e-02 +2.466716e-01 -2.825377e-01 -1.328475e-02 -5.975199e-03 +1.158705e-03 +1.895375e-03
         +2.466716e-01 -2.825377e-01 +5.832875e-02 -6.729107e-02 +1.158705e-03 +1.895375e-03 -1.328475e-02 -5.975199e-03
         -1.328475e-02 -5.975199e-03 +1.158705e-03 +1.895375e-03 +5.832875e-02 -6.729107e-02 +2.466716e-01 -2.825377e-01
         +1.158705e-03 +1.895375e-03 -1.328475e-02 -5.975199e-03 +2.466716e-01 -2.825377e-01 +5.832875e-02 -6.729107e-02
21.736438 +5.385543e-02 -6.218409e-02 +1.635491e-01 -3.359199e-01 -1.337534e-02 -5.815113e-03 +1.615660e-03 +1.530561e-03
         +1.635491e-01 -3.359199e-01 +5.385543e-02 -6.218409e-02 +1.615660e-03 +1.530561e-03 -1.337534e-02 -5.815113e-03
         -1.337534e-02 -5.815113e-03 +1.615660e-03 +1.530561e-03 +5.385543e-02 -6.218409e-02 +1.635491e-01 -3.359199e-01
         +1.615660e-03 +1.530561e-03 -1.337534e-02 -5.815113e-03 +1.635491e-01 -3.359199e-01 +5.385543e-02 -6.218409e-02
21.836375 +4.974524e-02 -5.678054e-02 +6.973701e-02 -3.656017e-01 -1.346389e-02 -5.653645e-03 +1.962308e-03 +1.058366e-03
         +6.973701e-02 -3.656017e-01 +4.974524e-02 -5.678054e-02 +1.962308e-03 +1.058366e-03 -1.346389e-02 -5.653645e-03
         -1.346389e-02 -5.653645e-03 +1.962308e-03 +1.058366e-03 +4.974524e-02 -5.678054e-02 +6.973701e-02 -3.656017e-01
         +1.962308e-03 +1.058366e-03 -1.346389e-02 -5.653645e-03 +6.973701e-02 -3.656017e-01 +4.974524e-02 -5.678054e-02
21.936312 +4.601779e-02 -5.110621e-02 -2.818772e-02 -3.697193e-01 -1.355038e-02 -5.490825e-03 +2.174219e-03 +5.111416e-04
         -2.818772e-02 -3.697193e-01 +4.601779e-02 -5.110621e-02 +2.174219e-03 +5.111416e-04 -1.355038e-02 -5.490825e-03
         -1.355038e-02 -5.490825e-03 +2.174219e-03 +5.111416e-04 +4.601779e-02 -5.110621e-02 -2.818772e-02 -3.697193e-01
         +2.174219e-03 +5.111416e-04 -1.355038e-02 -5.490825e-03 -2.818772e-02 -3.697193e-01 +4.601779e-02 -5.110621e-02
22.036250 +4.269085e-02 -4.518815e-02 -1.234187e-01 -3.481890e-01 -1.363480e-02 -5.326679e-03 +2.236221e-03 -7.344074e-05
         -1.234187e-01 -3.481890e-01 +4.269085e-02 -4.518815e-02 +2.236221e-03 -7.344074e-05 -1.363480e-02 -5.326679e-03
         -1.363480e-02 -5.326679e-03 +2.236221e-03 -7.344074e-05 +4.269085e-02 -4.518815e-02 -1.234187e-01 -3.481890e-01
         +2.236221e-03 -7.344074e-05 -1.363480e-02 -5.326679e-03 -1.234187e-01 -3.481890e-01 +4.269085e-02 -4.518815e-02
22.136188 +3.978030e-02 -3.905459e-02 -2.093906e-01 -3.026981e-01 -1.371711e-02 -5.161237e-03 +2.143490e-03 -6.549849e-04
         -2.093906e-01 -3.026981e-01 +3.978030e-02 -3.905459e-02 +2.143490e-03 -6.549849e-04 -1.371711e-02 -5.161237e-03
         -1.371711e-02 -5.161237e-03 +2.143490e-03 -6.549849e-04 +3.978030e-02 -3.905459e-02 -2.093906e-01 -3.026981e-01
         +2.143490e-03 -6.549849e-04 -1.371711e-02 -5.161237e-03 -2.093906e-01 -3.026981e-01 +3.978030e-02 -3.905459e-02
22.236125 +3.730000e-02 -3.273478e-02 -2.802290e-01 -2.365738e-01 -1.379730e-02 -4.994527e-03 +1.901912e-03 -1.193165e-03
         -2.802290e-01 -2.365738e-01 +3.730000e-02 -3.273478e-02 +1.901912e-03 -1.193165e-03 -1.379730e-02 -4.994527e-03
         -1.379730e-02 -4.994527e-03 +1.901912e-03 -1.193165e-03 +3.730000e-02 -3.273478e-02 -2.802290e-01 -2.365738e-01
         +1.901912e-03 -1.193165e-03 -1.379730e-02 -4.994527e-03 -2.802290e-01 -2.365738e-01 +3.730000e-02 -3.273478e-02
22.336063 +3.526179e-02 -2.625885e-02 -3.311488e-01 -1.545407e-01 -1.387536e-02 -4.826578e-03 +1.527723e-03 -1.650521e-03
         -3.311488e-01 -1.545407e-01 +3.526179e-02 -2.625885e-02 +1.527723e-03 -1.650521e-03 -1.387536e-02 -4.826578e-03
         -1.387536e-02 -4.826578e-03 +1.527723e-03 -1.650521e-03 +3.526179e-02 -2.625885e-02 -3.311488e-01 -1.545407e-01
         +1.527723e-03 -1.650521e-03 -1.387536e-02 -4.826578e-03 -3.311488e-01 -1.545407e-01 +3.526179e-02 -2.625885e-02
22.436000 +3.367539e-02 -1.965770e-02 -3.587747e-01 -6.238529e-02 -1.395127e-02 -4.657418e-03 +1.046407e-03 -1.995074e-03
         -3.587747e-01 -6.238529e-02 +3.367539e-02 -1.965770e-02 +1.046407e-03 -1.995074e-03 -1.395127e-02 -4.657418e-03
         -1.395127e-02 -4.657418e-03 +1.046407e-03 -1.995074e-03 +3.367539e-02 -1.965770e-02 -3.587747e-01 -6.238529e-02
         +1.046407e-03 -1.995074e-03 -1.395127e-02 -4.657418e-03 -3.587747e-01 -6.238529e-02 +3.367539e-02 -1.965770e-02
22.535937 +3.254836e-02 -1.296279e-02 -3.613627e-01 +3.345045e-02 -1.402501e-02 -4.487079e-03 +4.909677e-04 -2.202557e-03
         -3.613627e-01 +3.345045e-02 +3.254836e-02 -1.296279e-02 +4.909677e-04 -2.202557e-03 -1.402501e-02 -4.487079e-03
         -1.402501e-02 -4.487079e-03 +4.909677e-04 -2.202557e-03 +3.254836e-02 -1.296279e-02 -3.613627e-01 +3.345045e-02
         +4.909677e-04 -2.202557e-03 -1.402501e-02 -4.487079e-03 -3.613627e-01 +3.345045e-02 +3.254836e-02 -1.296279e-02
22.635875 +3.188608e-02 -6.206071e-03 -3.389075e-01 +1.263166e-01 -1.409656e-02 -4.315588e-03 -1.003413e-04 -2.258127e-03
         -3.389075e-01 +1.263166e-01 +3.188608e-02 -6.206071e-03 -1.003413e-04 -2.258127e-03 -1.409656e-02 -4.315588e-03
         -1.409656e-02 -4.315588e-03 -1.003413e-04 -2.258127e-03 +3.188608e-02 -6.206071e-03 -3.389075e-01 +1.263166e-01
         -1.003413e-04 -2.258127e-03 -1.409656e-02 -4.315588e-03 -3.389075e-01 +1.263166e-01 +3.188608e-02 -6.206071e-03
22.735813 +3.169171e-02 +5.802485e-04 -2.931312e-01 +2.098141e-01 -1.416590e-02 -4.142976e-03 -6.866511e-04 -2.157431e-03
         -2.931312e-01 +2.098141e-01 +3.169171e-02 +5.802485e-04 -6.866511e-04 -2.157431e-03 -1.416590e-02 -4.142976e-03
         -1.416590e-02 -4.142976e-03 -6.866511e-04 -2.157431e-03 +3.169171e-02 +5.802485e-04 -2.931312e-01 +2.098141e-01
         -6.866511e-04 -2.157431e-03 -1.416590e-02 -4.142976e-03 -2.931312e-01 +2.098141e-01 +3.169171e-02 +5.802485e-04
22.835750 +3.196618e-02 +7.363801e-03 -2.273521e-01 +2.782327e-01 -1.423302e-02 -3.969273e-03 -1.227305e-03 -1.906933e-03
         -2.273521e-01 +2.782327e-01 +3.196618e-02 +7.363801e-03 -1.227305e-03 -1.906933e-03 -1.423302e-02 -3.969273e-03
         -1.423302e-02 -3.969273e-03 -1.227305e-03 -1.906933e-03 +3.196618e-02 +7.363801e-03 -2.273521e-01 +2.782327e-01
         -1.227305e-03 -1.906933e-03 -1.423302e-02 -3.969273e-03 -2.273521e-01 +2.782327e-01 +3.196618e-02 +7.363801e-03
22.935688 +3.270817e-02 +1.411224e-02 -1.462470e-01 +3.269397e-01 -1.429791e-02 -3.794508e-03 -1.684680e-03 -1.523511e-03
         -1.462470e-01 +3.269397e-01 +3.270817e-02 +1.411224e-02 -1.684680e-03 -1.523511e-03 -1.429791e-02 -3.794508e-03
         -1.429791e-02 -3.794508e-03 -1.684680e-03 -1.523511e-03 +3.270817e-02 +1.411224e-02 -1.462470e-01 +3.269397e-01
         -1.684680e-03 -1.523511e-03 -1.429791e-02 -3.794508e-03 -1.462470e-01 +3.269397e-01 +3.270817e-02 +1.411224e-02
23.035625 +3.391414e-02 +2.079337e-02 -5.551988e-02 +3.526906e-01 -1.436055e-02 -3.618713e-03 -2.026807e-03 -1.033311e-03
         -5.551988e-02 +3.526906e-01 +3.391414e-02 +2.079337e-02 -2.026807e-03 -1.033311e-03 -1.436055e-02 -3.618713e-03
         -1.436055e-02 -3.618713e-03 -2.026807e-03 -1.033311e-03 +3.391414e-02 +2.079337e-02 -5.551988e-02 +3.526906e-01
         -2.026807e-03 -1.033311e-03 -1.436055e-02 -3.618713e-03 -5.551988e-02 +3.526906e-01 +3.391414e-02 +2.079337e-02
23.135563 +3.557836e-02 +2.737534e-02 +3.849573e-02 +3.538451e-01 -1.442092e-02 -3.441918e-03 -2.229605e-03 -4.699715e-04
         +3.849573e-02 +3.538451e-01 +3.557836e-02 +2.737534e-02 -2.229605e-03 -4.699715e-04 -1.442092e-02 -3.441918e-03
         -1.442092e-02 -3.441918e-03 -2.229605e-03 -4.699715e-04 +3.557836e-02 +2.737534e-02 +3.849573e-02 +3.538451e-01
         -2.229605e-03 -4.699715e-04 -1.442092e-02 -3.441918e-03 +3.849573e-02 +3.538451e-01 +3.557836e-02 +2.737534e-02
23.235500 +3.769287e-02 +3.382675e-02 +1.292767e-01 +3.304694e-01 -1.447900e-02 -3.264153e-03 -2.278580e-03 +1.276956e-04
         +1.292767e-01 +3.304694e-01 +3.769287e-02 +3.382675e-02 -2.278580e-03 +1.276956e-04 -1.447900e-02 -3.264153e-03
         -1.447900e-02 -3.264153e-03 -2.278580e-03 +1.276956e-04 +3.769287e-02 +3.382675e-02 +1.292767e-01 +3.304694e-01
         -2.278580e-03 +1.276956e-04 -1.447900e-02 -3.264153e-03 +1.292767e-01 +3.304694e-01 +3.769287e-02 +3.382675e-02
23.335438 +4.024759e-02 +4.011685e-02 +2.105604e-01 +2.843230e-01 -1.453480e-02 -3.085450e-03 -2.169857e-03 +7.183742e-04
         +2.105604e-01 +2.843230e-01 +4.024759e-02 +4.011685e-02 -2.169857e-03 +7.183742e-04 -1.453480e-02 -3.085450e-03
         -1.453480e-02 -3.085450e-03 -2.169857e-03 +7.183742e-04 +4.024759e-02 +4.011685e-02 +2.105604e-01 +2.843230e-01
         -2.169857e-03 +7.183742e-04 -1.453480e-02 -3.085450e-03 +2.105604e-01 +2.843230e-01 +4.024759e-02 +4.011685e-02
23.435375 +4.323035e-02 +4.621562e-02 +2.767740e-01 +2.187282e-01 -1.458828e-02 -2.905839e-03 -1.910484e-03 +1.261105e-03
         +2.767740e-01 +2.187282e-01 +4.323035e-02 +4.621562e-02 -1.910484e-03 +1.261105e-03 -1.458828e-02 -2.905839e-03
         -1.458828e-02 -2.905839e-03 -1.910484e-03 +1.261105e-03 +4.323035e-02 +4.621562e-02 +2.767740e-01 +2.187282e-01
         -1.910484e-03 +1.261105e-03 -1.458828e-02 -2.905839e-03 +2.767740e-01 +2.187282e-01 +4.323035e-02 +4.621562e-02
23.535312 +4.662691e-02 +5.209400e-02 +3.234155e-01 +1.383333e-01 -1.463944e-02 -2.725353e-03 -1.517975e-03 +1.718129e-03
         +3.234155e-01 +1.383333e-01 +4.662691e-02 +5.209400e-02 -1.517975e-03 +1.718129e-03 -1.463944e-02 -2.725353e-03
         -1.463944e-02 -2.725353e-03 -1.517975e-03 +1.718129e-03 +4.662691e-02 +5.209400e-02 +3.234155e-01 +1.383333e-01
         -1.517975e-03 +1.718129e-03 -1.463944e-02 -2.725353e-03 +3.234155e-01 +1.383333e-01 +4.662691e-02 +5.209400e-02
23.635250 +5.042109e-02 +5.772393e-02 +3.473583e-01 +4.878585e-02 -1.468827e-02 -2.544022e-03 -1.019130e-03 +2.057512e-03
         +3.473583e-01 +4.878585e-02 +5.042109e-02 +5.772393e-02 -1.019130e-03 +2.057512e-03 -1.468827e-02 -2.544022e-03
         -1.468827e-02 -2.544022e-03 -1.019130e-03 +2.057512e-03 +5.042109e-02 +5.772393e-02 +3.473583e-01 +4.878585e-02
         -1.019130e-03 +2.057512e-03 -1.468827e-02 -2.544022e-03 +3.473583e-01 +4.878585e-02 +5.042109e-02 +5.772393e-02
23.735188 +5.459477e-02 +6.307858e-02 +3.470611e-01 -4.366120e-02 -1.473475e-02 -2.361878e-03 -4.482001e-04 +2.255383e-03
         +3.470611e-01 -4.366120e-02 +5.459477e-02 +6.307858e-02 -4.482001e-04 +2.255383e-03 -1.473475e-02 -2.361878e-03
         -1.473475e-02 -2.361878e-03 -4.482001e-04 +2.255383e-03 +5.459477e-02 +6.307858e-02 +3.470611e-01 -4.366120e-02
         -4.482001e-04 +2.255383e-03 -1.473475e-02 -2.361878e-03 +3.470611e-01 -4.366120e-02 +5.459477e-02 +6.307858e-02
23.835125 +5.912807e-02 +6.813241e-02 +3.226669e-01 -1.325840e-01 -1.477887e-02 -2.178953e-03 +1.554630e-04 +2.297609e-03
         +3.226669e-01 -1.325840e-01 +5.912807e-02 +6.813241e-02 +1.554630e-04 +2.297609e-03 -1.477887e-02 -2.178953e-03
         -1.477887e-02 -2.178953e-03 +1.554630e-04 +2.297609e-03 +5.912807e-02 +6.813241e-02 +3.226669e-01 -1.325840e-01
         +1.554630e-04 +2.297609e-03 -1.477887e-02 -2.178953e-03 +3.226669e-01 -1.325840e-01 +5.912807e-02 +6.813241e-02
23.935063 +6.399935e-02 +7.286131e-02 +2.759862e-01 -2.118319e-01 -1.482062e-02 -1.995279e-03 +7.501227e-04 +2.180808e-03
         +2.759862e-01 -2.118319e-01 +6.399935e-02 +7.286131e-02 +7.501227e-04 +2.180808e-03 -1.482062e-02 -1.995279e-03
         -1.482062e-02 -1.995279e-03 +7.501227e-04 +2.180808e-03 +6.399935e-02 +7.286131e-02 +2.759862e-01 -2.118319e-01
         +7.501227e-04 +2.180808e-03 -1.482062e-02 -1.995279e-03 +2.759862e-01 -2.118319e-01 +6.399935e-02 +7.286131e-02
24.035000 +6.918539e-02 +7.724273e-02 +2.103655e-01 -2.759515e-01 -1.485998e-02 -1.810888e-03 +1.294545e-03 +1.912610e-03
         +2.103655e-01 -2.759515e-01 +6.918539e-02 +7.724273e-02 +1.294545e-03 +1.912610e-03 -1.485998e-02 -1.810888e-03
         -1.485998e-02 -1.810888e-03 +1.294545e-03 +1.912610e-03 +6.918539e-02 +7.724273e-02 +2.103655e-01 -2.759515e-01
         +1.294545e-03 +1.912610e-03 -1.485998e-02 -1.810888e-03 +2.103655e-01 -2.759515e-01 +6.918539e-02 +7.724273e-02
24.134938 +7.466146e-02 +8.125578e-02 +1.304501e-01 -3.205614e-01 -1.489696e-02 -1.625812e-03 +1.750859e-03 +1.511165e-03
         +1.304501e-01 -3.205614e-01 +7.466146e-02 +8.125578e-02 +1.750859e-03 +1.511165e-03 -1.489696e-02 -1.625812e-03
         -1.489696e-02 -1.625812e-03 +1.750859e-03 +1.511165e-03 +7.466146e-02 +8.125578e-02 +1.304501e-01 -3.205614e-01
         +1.750859e-03 +1.511165e-03 -1.489696e-02 -1.625812e-03 +1.304501e-01 -3.205614e-01 +7.466146e-02 +8.125578e-02
24.234875 +8.040144e-02 +8.488133e-02 +4.185769e-02 -3.426513e-01 -1.493153e-02 -1.440084e-03 +2.087194e-03 +1.003911e-03
         +4.185769e-02 -3.426513e-01 +8.040144e-02 +8.488133e-02 +2.087194e-03 +1.003911e-03 -1.493153e-02 -1.440084e-03
         -1.493153e-02 -1.440084e-03 +2.087194e-03 +1.003911e-03 +8.040144e-02 +8.488133e-02 +4.185769e-02 -3.426513e-01
         +2.087194e-03 +1.003911e-03 -1.493153e-02 -1.440084e-03 +4.185769e-02 -3.426513e-01 +8.040144e-02 +8.488133e-02
24.334813 +8.637796e-02 +8.810207e-02 -4.921385e-02 -3.407865e-01 -1.496369e-02 -1.253735e-03 +2.279907e-03 +4.256991e-04
         -4.921385e-02 -3.407865e-01 +8.637796e-02 +8.810207e-02 +2.279907e-03 +4.256991e-04 -1.496369e-02 -1.253735e-03
         -1.496369e-02 -1.253735e-03 +2.279907e-03 +4.256991e-04 +8.637796e-02 +8.810207e-02 -4.921385e-02 -3.407865e-01
         +2.279907e-03 +4.256991e-04 -1.496369e-02 -1.253735e-03 -4.921385e-02 -3.407865e-01 +8.637796e-02 +8.810207e-02
24.434750 +9.256251e-02 +9.090264e-02 -1.364184e-01 -3.152018e-01 -1.499342e-02 -1.066799e-03 +2.315244e-03 -1.836042e-04
         -1.364184e-01 -3.152018e-01 +9.256251e-02 +9.090264e-02 +2.315244e-03 -1.836042e-04 -1.499342e-02 -1.066799e-03
         -1.499342e-02 -1.066799e-03 +2.315244e-03 -1.836042e-04 +9.256251e-02 +9.090264e-02 -1.364184e-01 -3.152018e-01
         +2.315244e-03 -1.836042e-04 -1.499342e-02 -1.066799e-03 -1.364184e-01 -3.152018e-01 +9.256251e-02 +9.090264e-02
24.534688 +9.892560e-02 +9.326971e-02 -2.137026e-01 -2.677805e-01 -1.502073e-02 -8.793079e-04 +2.190321e-03 -7.818663e-04
         -2.137026e-01 -2.677805e-01 +9.892560e-02 +9.326971e-02 +2.190321e-03 -7.818663e-04 -1.502073e-02 -8.793079e-04
         -1.502073e-02 -8.793079e-04 +2.190321e-03 -7.818663e-04 +9.892560e-02 +9.326971e-02 -2.137026e-01 -2.677805e-01
         +2.190321e-03 -7.818663e-04 -1.502073e-02 -8.793079e-04 -2.137026e-01 -2.677805e-01 +9.892560e-02 +9.326971e-02
24.634625 +1.054369e-01 +9.519196e-02 -2.757255e-01 -2.019182e-01 -1.504560e-02 -6.912950e-04 +1.913356e-03 -1.327604e-03
         -2.757255e-01 -2.019182e-01 +1.054369e-01 +9.519196e-02 +1.913356e-03 -1.327604e-03 -1.504560e-02 -6.912950e-04
         -1.504560e-02 -6.912950e-04 +1.913356e-03 -1.327604e-03 +1.054369e-01 +9.519196e-02 -2.757255e-01 -2.019182e-01
         +1.913356e-03 -1.327604e-03 -1.504560e-02 -6.912950e-04 -2.757255e-01 -2.019182e-01 +1.054369e-01 +9.519196e-02
24.734563 +1.120653e-01 +9.666025e-02 -3.182278e-01 -1.222830e-01 -1.506802e-02 -5.027931e-04 +1.503128e-03 -1.782864e-03
         -3.182278e-01 -1.222830e-01 +1.120653e-01 +9.666025e-02 +1.503128e-03 -1.782864e-03 -1.506802e-02 -5.027931e-04
         -1.506802e-02 -5.027931e-04 +1.503128e-03 -1.782864e-03 +1.120653e-01 +9.666025e-02 -3.182278e-01 -1.222830e-01
         +1.503128e-03 -1.782864e-03 -1.506802e-02 -5.027931e-04 -3.182278e-01 -1.222830e-01 +1.120653e-01 +9.666025e-02
24.834500 +1.187793e-01 +9.766756e-02 -3.383262e-01 -3.448634e-02 -1.508798e-02 -3.138351e-04 +9.877027e-04 -2.115859e-03
         -3.383262e-01 -3.448634e-02 +1.187793e-01 +9.766756e-02 +9.877027e-04 -2.115859e-03 -1.508798e-02 -3.138351e-04
         -1.508798e-02 -3.138351e-04 +9.877027e-04 -2.115859e-03 +1.187793e-01 +9.766756e-02 -3.383262e-01 -3.448634e-02
         +9.877027e-04 -2.115859e-03 -1.508798e-02 -3.138351e-04 -3.383262e-01 -3.448634e-02 +1.187793e-01 +9.766756e-02
24.934438 +1.255467e-01 +9.820909e-02 -3.347099e-01 +5.531047e-02 -1.510548e-02 -1.244543e-04 +4.025126e-04 -2.303196e-03
         -3.347099e-01 +5.531047e-02 +1.255467e-01 +9.820909e-02 +4.025126e-04 -2.303196e-03 -1.510548e-02 -1.244543e-04
         -1.510548e-02 -1.244543e-04 +4.025126e-04 -2.303196e-03 +1.255467e-01 +9.820909e-02 -3.347099e-01 +5.531047e-02
         +4.025126e-04 -2.303196e-03 -1.510548e-02 -1.244543e-04 -3.347099e-01 +5.531047e-02 +1.255467e-01 +9.820909e-02
25.034375 +1.323355e-01 +9.828226e-02 -3.077285e-01 +1.408274e-01 -1.512052e-02 +6.531635e-05 -2.120816e-04 -2.331512e-03
         -3.077285e-01 +1.408274e-01 +1.323355e-01 +9.828226e-02 -2.120816e-04 -2.331512e-03 -1.512052e-02 +6.531635e-05
         -1.512052e-02 +6.531635e-05 -2.120816e-04 -2.331512e-03 +1.323355e-01 +9.828226e-02 -3.077285e-01 +1.408274e-01
         -2.120816e-04 -2.331512e-03 -1.512052e-02 +6.531635e-05 -3.077285e-01 +1.408274e-01 +1.323355e-01 +9.828226e-02
25.134313 +1.391130e-01 +9.788671e-02 -2.593632e-01 +2.161050e-01 -1.513307e-02 +2.554434e-04 -8.135762e-04 -2.198433e-03
         -2.593632e-01 +2.161050e-01 +1.391130e-01 +9.788671e-02 -8.135762e-04 -2.198433e-03 -1.513307e-02 +2.554434e-04
         -1.513307e-02 +2.554434e-04 -8.135762e-04 -2.198433e-03 +1.391130e-01 +9.788671e-02 -2.593632e-01 +2.161050e-01
         -8.135762e-04 -2.198433e-03 -1.513307e-02 +2.554434e-04 -2.593632e-01 +2.161050e-01 +1.391130e-01 +9.788671e-02
25.234250 +1.458471e-01 +9.702435e-02 -1.930840e-01 +2.759201e-01 -1.514315e-02 +4.458936e-04 -1.360266e-03 -1.912765e-03
         -1.930840e-01 +2.759201e-01 +1.458471e-01 +9.702435e-02 -1.360266e-03 -1.912765e-03 -1.514315e-02 +4.458936e-04
         -1.514315e-02 +4.458936e-04 -1.360266e-03 -1.912765e-03 +1.458471e-01 +9.702435e-02 -1.930840e-01 +2.759201e-01
         -1.360266e-03 -1.912765e-03 -1.514315e-02 +4.458936e-04 -1.930840e-01 +2.759201e-01 +1.458471e-01 +9.702435e-02
25.334188 +1.525057e-01 +9.569927e-02 -1.136031e-01 +3.161496e-01 -1.515075e-02 +6.366335e-04 -1.814137e-03 -1.493910e-03
         -1.136031e-01 +3.161496e-01 +1.525057e-01 +9.569927e-02 -1.814137e-03 -1.493910e-03 -1.515075e-02 +6.366335e-04
         -1.515075e-02 +6.366335e-04 -1.814137e-03 -1.493910e-03 +1.525057e-01 +9.569927e-02 -1.136031e-01 +3.161496e-01
         -1.814137e-03 -1.493910e-03 -1.515075e-02 +6.366335e-04 -1.136031e-01 +3.161496e-01 +1.525057e-01 +9.569927e-02
25.434125 +1.590569e-01 +9.391780e-02 -2.654146e-02 +3.340569e-01 -1.515585e-02 +8.276297e-04 -2.143513e-03 -9.705503e-04
         -2.654146e-02 +3.340569e-01 +1.590569e-01 +9.391780e-02 -2.143513e-03 -9.705503e-04 -1.515585e-02 +8.276297e-04
         -1.515585e-02 +8.276297e-04 -2.143513e-03 -9.705503e-04 +1.590569e-01 +9.391780e-02 -2.654146e-02 +3.340569e-01
         -2.143513e-03 -9.705503e-04 -1.515585e-02 +8.276297e-04 -2.654146e-02 +3.340569e-01 +1.590569e-01 +9.391780e-02
25.534063 +1.654695e-01 +9.168844e-02 +6.196780e-02 +3.284798e-01 -1.515846e-02 +1.018849e-03 -2.325266e-03 -3.786832e-04
         +6.196780e-02 +3.284798e-01 +1.654695e-01 +9.168844e-02 -2.325266e-03 -3.786832e-04 -1.515846e-02 +1.018849e-03
         -1.515846e-02 +1.018849e-03 -2.325266e-03 -3.786832e-04 +1.654695e-01 +9.168844e-02 +6.196780e-02 +3.284798e-01
         -2.325266e-03 -3.786832e-04 -1.515846e-02 +1.018849e-03 +6.196780e-02 +3.284798e-01 +1.654695e-01 +9.168844e-02
25.634000 +1.717130e-01 +8.902181e-02 +1.457116e-01 +2.999086e-01 -1.515856e-02 +1.210257e-03 -2.346441e-03 +2.408587e-04
         +1.457116e-01 +2.999086e-01 +1.717130e-01 +8.902181e-02 -2.346441e-03 +2.408587e-04 -1.515856e-02 +1.210257e-03
         -1.515856e-02 +1.210257e-03 -2.346441e-03 +2.408587e-04 +1.717130e-01 +8.902181e-02 +1.457116e-01 +2.999086e-01
         -2.346441e-03 +2.408587e-04 -1.515856e-02 +1.210257e-03 +1.457116e-01 +2.999086e-01 +1.717130e-01 +8.902181e-02
25.733938 +1.777575e-01 +8.593063e-02 +2.188338e-01 +2.504466e-01 -1.515617e-02 +1.401820e-03 -2.205181e-03 +8.452246e-04
         +2.188338e-01 +2.504466e-01 +1.777575e-01 +8.593063e-02 -2.205181e-03 +8.452246e-04 -1.515617e-02 +1.401820e-03
         -1.515617e-02 +1.401820e-03 -2.205181e-03 +8.452246e-04 +1.777575e-01 +8.593063e-02 +2.188338e-01 +2.504466e-01
         -2.205181e-03 +8.452246e-04 -1.515617e-02 +1.401820e-03 +2.188338e-01 +2.504466e-01 +1.777575e-01 +8.593063e-02
25.833875 +1.835743e-01 +8.242965e-02 +2.762464e-01 +1.836576e-01 -1.515127e-02 +1.593505e-03 -1.910878e-03 +1.392512e-03
         +2.762464e-01 +1.836576e-01 +1.835743e-01 +8.242965e-02 -1.910878e-03 +1.392512e-03 -1.515127e-02 +1.593505e-03
         -1.515127e-02 +1.593505e-03 -1.910878e-03 +1.392512e-03 +1.835743e-01 +8.242965e-02 +2.762464e-01 +1.836576e-01
         -1.910878e-03 +1.392512e-03 -1.515127e-02 +1.593505e-03 +2.762464e-01 +1.836576e-01 +1.835743e-01 +8.242965e-02
25.933812 +1.891356e-01 +7.853556e-02 +3.139856e-01 +1.043111e-01 -1.514386e-02 +1.785279e-03 -1.483555e-03 +1.844673e-03
         +3.139856e-01 +1.043111e-01 +1.891356e-01 +7.853556e-02 -1.483555e-03 +1.844673e-03 -1.514386e-02 +1.785279e-03
         -1.514386e-02 +1.785279e-03 -1.483555e-03 +1.844673e-03 +1.891356e-01 +7.853556e-02 +3.139856e-01 +1.043111e-01
         -1.483555e-03 +1.844673e-03 -1.514386e-02 +1.785279e-03 +3.139856e-01 +1.043111e-01 +1.891356e-01 +7.853556e-02
26.033750 +1.944149e-01 +7.426693e-02 +3.294876e-01 +1.804176e-02 -1.513395e-02 +1.977107e-03 -9.524986e-04 +2.170161e-03
         +3.294876e-01 +1.804176e-02 +1.944149e-01 +7.426693e-02 -9.524986e-04 +2.170161e-03 -1.513395e-02 +1.977107e-03
         -1.513395e-02 +1.977107e-03 -9.524986e-04 +2.170161e-03 +1.944149e-01 +7.426693e-02 +3.294876e-01 +1.804176e-02
         -9.524986e-04 +2.170161e-03 -1.513395e-02 +1.977107e-03 +3.294876e-01 +1.804176e-02 +1.944149e-01 +7.426693e-02
26.133688 +1.993870e-01 +6.964413e-02 +3.217657e-01 -6.905063e-02 -1.512152e-02 +2.168956e-03 -3.542520e-04 +2.346135e-03
         +3.217657e-01 -6.905063e-02 +1.993870e-01 +6.964413e-02 -3.542520e-04 +2.346135e-03 -1.512152e-02 +2.168956e-03
         -1.512152e-02 +2.168956e-03 -3.542520e-04 +2.346135e-03 +1.993870e-01 +6.964413e-02 +3.217657e-01 -6.905063e-02
         -3.542520e-04 +2.346135e-03 -1.512152e-02 +2.168956e-03 +3.217657e-01 -6.905063e-02 +1.993870e-01 +6.964413e-02
26.233625 +2.040281e-01 +6.468918e-02 +2.914739e-01 -1.508336e-01 -1.510657e-02 +2.360791e-03 +2.699004e-04 +2.360059e-03
         +2.914739e-01 -1.508336e-01 +2.040281e-01 +6.468918e-02 +2.699004e-04 +2.360059e-03 -1.510657e-02 +2.360791e-03
         -1.510657e-02 +2.360791e-03 +2.699004e-04 +2.360059e-03 +2.040281e-01 +6.468918e-02 +2.914739e-01 -1.508336e-01
         +2.699004e-04 +2.360059e-03 -1.510657e-02 +2.360791e-03 +2.914739e-01 -1.508336e-01 +2.040281e-01 +6.468918e-02
26.333563 +2.083163e-01 +5.942574e-02 +2.408552e-01 -2.215756e-01 -1.508912e-02 +2.552580e-03 +8.767849e-04 +2.210599e-03
         +2.408552e-01 -2.215756e-01 +2.083163e-01 +5.942574e-02 +8.767849e-04 +2.210599e-03 -1.508912e-02 +2.552580e-03
         -1.508912e-02 +2.552580e-03 +8.767849e-04 +2.210599e-03 +2.083163e-01 +5.942574e-02 +2.408552e-01 -2.215756e-01
         +8.767849e-04 +2.210599e-03 -1.508912e-02 +2.552580e-03 +2.408552e-01 -2.215756e-01 +2.083163e-01 +5.942574e-02
26.433500 +2.122309e-01 +5.387889e-02 +1.735770e-01 -2.763498e-01 -1.506915e-02 +2.744288e-03 +1.424326e-03 +1.907737e-03
         +1.735770e-01 -2.763498e-01 +2.122309e-01 +5.387889e-02 +1.424326e-03 +1.907737e-03 -1.506915e-02 +2.744288e-03
         -1.506915e-02 +2.744288e-03 +1.424326e-03 +1.907737e-03 +2.122309e-01 +5.387889e-02 +1.735770e-01 -2.763498e-01
         +1.424326e-03 +1.907737e-03 -1.506915e-02 +2.744288e-03 +1.735770e-01 -2.763498e-01 +2.122309e-01 +5.387889e-02
26.533438 +2.157534e-01 +4.807509e-02 +9.446608e-02 -3.113796e-01 -1.504666e-02 +2.935882e-03 +1.874466e-03 +1.472108e-03
         +9.446608e-02 -3.113796e-01 +2.157534e-01 +4.807509e-02 +1.874466e-03 +1.472108e-03 -1.504666e-02 +2.935882e-03
         -1.504666e-02 +2.935882e-03 +1.874466e-03 +1.472108e-03 +2.157534e-01 +4.807509e-02 +9.446608e-02 -3.113796e-01
         +1.874466e-03 +1.472108e-03 -1.504666e-02 +2.935882e-03 +9.446608e-02 -3.113796e-01 +2.157534e-01 +4.807509e-02
26.633375 +2.188669e-01 +4.204201e-02 +9.161320e-03 -3.243013e-01 -1.502166e-02 +3.127328e-03 +2.195810e-03 +9.335908e-04
         +9.161320e-03 -3.243013e-01 +2.188669e-01 +4.204201e-02 +2.195810e-03 +9.335908e-04 -1.502166e-02 +3.127328e-03
         -1.502166e-02 +3.127328e-03 +2.195810e-03 +9.335908e-04 +2.188669e-01 +4.204201e-02 +9.161320e-03 -3.243013e-01
         +2.195810e-03 +9.335908e-04 -1.502166e-02 +3.127328e-03 +9.161320e-03 -3.243013e-01 +2.188669e-01 +4.204201e-02
26.733313 +2.215566e-01 +3.580844e-02 -7.628891e-02 -3.143255e-01 -1.499415e-02 +3.318592e-03 +2.365820e-03 +3.292591e-04
         -7.628891e-02 -3.143255e-01 +2.215566e-01 +3.580844e-02 +2.365820e-03 +3.292591e-04 -1.499415e-02 +3.318592e-03
         -1.499415e-02 +3.318592e-03 +2.365820e-03 +3.292591e-04 +2.215566e-01 +3.580844e-02 -7.628891e-02 -3.143255e-01
         +2.365820e-03 +3.292591e-04 -1.499415e-02 +3.318592e-03 -7.628891e-02 -3.143255e-01 +2.215566e-01 +3.580844e-02
26.833250 +2.238097e-01 +2.940410e-02 -1.558577e-01 -2.822854e-01 -1.496413e-02 +3.509640e-03 +2.372393e-03 -2.991729e-04
         -1.558577e-01 -2.822854e-01 +2.238097e-01 +2.940410e-02 +2.372393e-03 -2.991729e-04 -1.496413e-02 +3.509640e-03
         -1.496413e-02 +3.509640e-03 +2.372393e-03 -2.991729e-04 +2.238097e-01 +2.940410e-02 -1.558577e-01 -2.822854e-01
         +2.372393e-03 -2.991729e-04 -1.496413e-02 +3.509640e-03 -1.558577e-01 -2.822854e-01 +2.238097e-01 +2.940410e-02
26.933187 +2.256154e-01 +2.285953e-02 -2.239668e-01 -2.305696e-01 -1.493160e-02 +3.700439e-03 +2.214723e-03 -9.082315e-04
         -2.239668e-01 -2.305696e-01 +2.256154e-01 +2.285953e-02 +2.214723e-03 -9.082315e-04 -1.493160e-02 +3.700439e-03
         -1.493160e-02 +3.700439e-03 +2.214723e-03 -9.082315e-04 +2.256154e-01 +2.285953e-02 -2.239668e-01 -2.305696e-01
         +2.214723e-03 -9.082315e-04 -1.493160e-02 +3.700439e-03 -2.239668e-01 -2.305696e-01 +2.256154e-01 +2.285953e-02
27.033125 +2.269651e-01 +1.620595e-02 -2.758803e-01 -1.629452e-01 -1.489656e-02 +3.890955e-03 +1.903382e-03 -1.455693e-03
         -2.758803e-01 -1.629452e-01 +2.269651e-01 +1.620595e-02 +1.903382e-03 -1.455693e-03 -1.489656e-02 +3.890955e-03
         -1.489656e-02 +3.890955e-03 +1.903382e-03 -1.455693e-03 +2.269651e-01 +1.620595e-02 -2.758803e-01 -1.629452e-01
         +1.903382e-03 -1.455693e-03 -1.489656e-02 +3.890955e-03 -2.758803e-01 -1.629452e-01 +2.269651e-01 +1.620595e-02
27.133063 +2.278523e-01 +9.475071e-03 -3.080356e-01 -8.428183e-02 -1.485902e-02 +4.081155e-03 +1.459611e-03 -1.903512e-03
         -3.080356e-01 -8.428183e-02 +2.278523e-01 +9.475071e-03 +1.459611e-03 -1.903512e-03 -1.485902e-02 +4.081155e-03
         -1.485902e-02 +4.081155e-03 +1.459611e-03 -1.903512e-03 +2.278523e-01 +9.475071e-03 -3.080356e-01 -8.428183e-02
         +1.459611e-03 -1.903512e-03 -1.485902e-02 +4.081155e-03 -3.080356e-01 -8.428183e-02 +2.278523e-01 +9.475071e-03
27.233000 +2.282729e-01 +2.699010e-03 -3.182898e-01 -2.007267e-04 -1.481898e-02 +4.271004e-03 +9.138688e-04 -2.220467e-03
         -3.182898e-01 -2.007267e-04 +2.282729e-01 +2.699010e-03 +9.138688e-04 -2.220467e-03 -1.481898e-02 +4.271004e-03
         -1.481898e-02 +4.271004e-03 +9.138688e-04 -2.220467e-03 +2.282729e-01 +2.699010e-03 -3.182898e-01 -2.007267e-04
         +9.138688e-04 -2.220467e-03 -1.481898e-02 +4.271004e-03 -3.182898e-01 -2.007267e-04 +2.282729e-01 +2.699010e-03
27.332938 +2.282249e-01 -4.089923e-03 -3.060632e-01 +8.332956e-02 -1.477645e-02 +4.460470e-03 +3.037428e-04 -2.384339e-03
         -3.060632e-01 +8.332956e-02 +2.282249e-01 -4.089923e-03 +3.037428e-04 -2.384339e-03 -1.477645e-02 +4.460470e-03
         -1.477645e-02 +4.460470e-03 +3.037428e-04 -2.384339e-03 +2.282249e-01 -4.089923e-03 -3.060632e-01 +8.332956e-02
         +3.037428e-04 -2.384339e-03 -1.477645e-02 +4.460470e-03 -3.060632e-01 +8.332956e-02 +2.282249e-01 -4.089923e-03
27.432875 +2.277084e-01 -1.085935e-02 -2.723705e-01 +1.604187e-01 -1.473142e-02 +4.649519e-03 -3.286436e-04 -2.383469e-03
         -2.723705e-01 +1.604187e-01 +2.277084e-01 -1.085935e-02 -3.286436e-04 -2.383469e-03 -1.473142e-02 +4.649519e-03
         -1.473142e-02 +4.649519e-03 -3.286436e-04 -2.383469e-03 +2.277084e-01 -1.085935e-02 -2.723705e-01 +1.604187e-01
         -3.286436e-04 -2.383469e-03 -1.473142e-02 +4.649519e-03 -2.723705e-01 +1.604187e-01 +2.277084e-01 -1.085935e-02
27.532813 +2.267259e-01 -1.757699e-02 -2.197377e-01 +2.256724e-01 -1.468390e-02 +4.838117e-03 -9.395401e-04 -2.217586e-03
         -2.197377e-01 +2.256724e-01 +2.267259e-01 -1.757699e-02 -9.395401e-04 -2.217586e-03 -1.468390e-02 +4.838117e-03
         -1.468390e-02 +4.838117e-03 -9.395401e-04 -2.217586e-03 +2.267259e-01 -1.757699e-02 -2.197377e-01 +2.256724e-01
         -9.395401e-04 -2.217586e-03 -1.468390e-02 +4.838117e-03 -2.197377e-01 +2.256724e-01 +2.267259e-01 -1.757699e-02
27.632750 +2.252822e-01 -2.421081e-02 -1.520131e-01 +2.745715e-01 -1.463390e-02 +5.026231e-03 -1.486598e-03 -1.897851e-03
         -1.520131e-01 +2.745715e-01 +2.252822e-01 -2.421081e-02 -1.486598e-03 -1.897851e-03 -1.463390e-02 +5.026231e-03
         -1.463390e-02 +5.026231e-03 -1.486598e-03 -1.897851e-03 +2.252822e-01 -2.421081e-02 -1.520131e-01 +2.745715e-01
         -1.486598e-03 -1.897851e-03 -1.463390e-02 +5.026231e-03 -1.520131e-01 +2.745715e-01 +2.252822e-01 -2.421081e-02
27.732688 +2.233840e-01 -3.072916e-02 -7.408402e-02 +3.037864e-01 -1.458142e-02 +5.213828e-03 -1.931807e-03 -1.446104e-03
         -7.408402e-02 +3.037864e-01 +2.233840e-01 -3.072916e-02 -1.931807e-03 -1.446104e-03 -1.458142e-02 +5.213828e-03
         -1.458142e-02 +5.213828e-03 -1.931807e-03 -1.446104e-03 +2.233840e-01 -3.072916e-02 -7.408402e-02 +3.037864e-01
         -1.931807e-03 -1.446104e-03 -1.458142e-02 +5.213828e-03 -7.408402e-02 +3.037864e-01 +2.233840e-01 -3.072916e-02
27.832625 +2.210405e-01 -3.710096e-02 +8.477489e-03 +3.114044e-01 -1.452647e-02 +5.400875e-03 -2.244139e-03 -8.933733e-04
         +8.477489e-03 +3.114044e-01 +2.210405e-01 -3.710096e-02 -2.244139e-03 -8.933733e-04 -1.452647e-02 +5.400875e-03
         -1.452647e-02 +5.400875e-03 -2.244139e-03 -8.933733e-04 +2.210405e-01 -3.710096e-02 +8.477489e-03 +3.114044e-01
         -2.244139e-03 -8.933733e-04 -1.452647e-02 +5.400875e-03 +8.477489e-03 +3.114044e-01 +2.210405e-01 -3.710096e-02
27.932562 +2.182628e-01 -4.329583e-02 +8.981505e-02 +2.970542e-01 -1.446906e-02 +5.587339e-03 -2.401709e-03 -2.777407e-04
         +8.981505e-02 +2.970542e-01 +2.182628e-01 -4.329583e-02 -2.401709e-03 -2.777407e-04 -1.446906e-02 +5.587339e-03
         -1.446906e-02 +5.587339e-03 -2.401709e-03 -2.777407e-04 +2.182628e-01 -4.329583e-02 +8.981505e-02 +2.970542e-01
         -2.401709e-03 -2.777407e-04 -1.446906e-02 +5.587339e-03 +8.981505e-02 +2.970542e-01 +2.182628e-01 -4.329583e-02
28.032500 +2.150642e-01 -4.928422e-02 +1.642055e-01 +2.619194e-01 -1.440919e-02 +5.773185e-03 -2.393314e-03 +3.582811e-04
         +1.642055e-01 +2.619194e-01 +2.150642e-01 -4.928422e-02 -2.393314e-03 +3.582811e-04 -1.440919e-02 +5.773185e-03
         -1.440919e-02 +5.773185e-03 -2.393314e-03 +3.582811e-04 +2.150642e-01 -4.928422e-02 +1.642055e-01 +2.619194e-01
         -2.393314e-03 +3.582811e-04 -1.440919e-02 +5.773185e-03 +1.642055e-01 +2.619194e-01 +2.150642e-01 -4.928422e-02
28.132438 +2.114599e-01 -5.503757e-02 +2.264631e-01 +2.086423e-01 -1.434687e-02 +5.958383e-03 -2.219223e-03 +9.706872e-04
         +2.264631e-01 +2.086423e-01 +2.114599e-01 -5.503757e-02 -2.219223e-03 +9.706872e-04 -1.434687e-02 +5.958383e-03
         -1.434687e-02 +5.958383e-03 -2.219223e-03 +9.706872e-04 +2.114599e-01 -5.503757e-02 +2.264631e-01 +2.086423e-01
         -2.219223e-03 +9.706872e-04 -1.434687e-02 +5.958383e-03 +2.264631e-01 +2.086423e-01 +2.114599e-01 -5.503757e-02
28.232375 +2.074672e-01 -6.052845e-02 +2.723022e-01 +1.411234e-01 -1.428210e-02 +6.142898e-03 -1.891184e-03 +1.517027e-03
         +2.723022e-01 +1.411234e-01 +2.074672e-01 -6.052845e-02 -1.891184e-03 +1.517027e-03 -1.428210e-02 +6.142898e-03
         -1.428210e-02 +6.142898e-03 -1.891184e-03 +1.517027e-03 +2.074672e-01 -6.052845e-02 +2.723022e-01 +1.411234e-01
         -1.891184e-03 +1.517027e-03 -1.428210e-02 +6.142898e-03 +2.723022e-01 +1.411234e-01 +2.074672e-01 -6.052845e-02
28.332313 +2.031050e-01 -6.573067e-02 +2.986324e-01 +6.423492e-02 -1.421490e-02 +6.326698e-03 -1.431629e-03 +1.959347e-03
         +2.986324e-01 +6.423492e-02 +2.031050e-01 -6.573067e-02 -1.431629e-03 +1.959347e-03 -1.421490e-02 +6.326698e-03
         -1.421490e-02 +6.326698e-03 -1.431629e-03 +1.959347e-03 +2.031050e-01 -6.573067e-02 +2.986324e-01 +6.423492e-02
         -1.431629e-03 +1.959347e-03 -1.421490e-02 +6.326698e-03 +2.986324e-01 +6.423492e-02 +2.031050e-01 -6.573067e-02
28.432250 +1.983941e-01 -7.061941e-02 +3.037663e-01 -1.653306e-02 -1.414528e-02 +6.509751e-03 -8.721440e-04 +2.266832e-03
         +3.037663e-01 -1.653306e-02 +1.983941e-01 -7.061941e-02 -8.721440e-04 +2.266832e-03 -1.414528e-02 +6.509751e-03
         -1.414528e-02 +6.509751e-03 -8.721440e-04 +2.266832e-03 +1.983941e-01 -7.061941e-02 +3.037663e-01 -1.653306e-02
         -8.721440e-04 +2.266832e-03 -1.414528e-02 +6.509751e-03 +3.037663e-01 -1.653306e-02 +1.983941e-01 -7.061941e-02
28.532187 +1.933571e-01 -7.517137e-02 +2.875253e-01 -9.546616e-02 -1.407324e-02 +6.692024e-03 -2.512888e-04 +2.417947e-03
         +2.875253e-01 -9.546616e-02 +1.933571e-01 -7.517137e-02 -2.512888e-04 +2.417947e-03 -1.407324e-02 +6.692024e-03
         -1.407324e-02 +6.692024e-03 -2.512888e-04 +2.417947e-03 +1.933571e-01 -7.517137e-02 +2.875253e-01 -9.546616e-02
         -2.512888e-04 +2.417947e-03 -1.407324e-02 +6.692024e-03 +2.875253e-01 -9.546616e-02 +1.933571e-01 -7.517137e-02
28.632125 +1.880179e-01 -7.936484e-02 +2.512383e-01 -1.670314e-01 -1.399879e-02 +6.873484e-03 +3.880550e-04 +2.401953e-03
         +2.512383e-01 -1.670314e-01 +1.880179e-01 -7.936484e-02 +3.880550e-04 +2.401953e-03 -1.399879e-02 +6.873484e-03
         -1.399879e-02 +6.873484e-03 +3.880550e-04 +2.401953e-03 +1.880179e-01 -7.936484e-02 +2.512383e-01 -1.670314e-01
         +3.880550e-04 +2.401953e-03 -1.399879e-02 +6.873484e-03 +2.512383e-01 -1.670314e-01 +1.880179e-01 -7.936484e-02
28.732063 +1.824021e-01 -8.317981e-02 +1.976326e-01 -2.262655e-01 -1.392194e-02 +7.054100e-03 +1.001650e-03 +2.219665e-03
         +1.976326e-01 -2.262655e-01 +1.824021e-01 -8.317981e-02 +1.001650e-03 +2.219665e-03 -1.392194e-02 +7.054100e-03
         -1.392194e-02 +7.054100e-03 +1.001650e-03 +2.219665e-03 +1.824021e-01 -8.317981e-02 +1.976326e-01 -2.262655e-01
         +1.001650e-03 +2.219665e-03 -1.392194e-02 +7.054100e-03 +1.976326e-01 -2.262655e-01 +1.824021e-01 -8.317981e-02
28.832000 +1.765363e-01 -8.659809e-02 +1.306280e-01 -2.691197e-01 -1.384271e-02 +7.233839e-03 +1.546967e-03 +1.883416e-03
         +1.306280e-01 -2.691197e-01 +1.765363e-01 -8.659809e-02 +1.546967e-03 +1.883416e-03 -1.384271e-02 +7.233839e-03
         -1.384271e-02 +7.233839e-03 +1.546967e-03 +1.883416e-03 +1.765363e-01 -8.659809e-02 +1.306280e-01 -2.691197e-01
         +1.546967e-03 +1.883416e-03 -1.384271e-02 +7.233839e-03 +1.306280e-01 -2.691197e-01 +1.765363e-01 -8.659809e-02
28.931938 +1.704486e-01 -8.960339e-02 +5.504901e-02 -2.927348e-01 -1.376110e-02 +7.412669e-03 +1.986130e-03 +1.416225e-03
         +5.504901e-02 -2.927348e-01 +1.704486e-01 -8.960339e-02 +1.986130e-03 +1.416225e-03 -1.376110e-02 +7.412669e-03
         -1.376110e-02 +7.412669e-03 +1.986130e-03 +1.416225e-03 +1.704486e-01 -8.960339e-02 +5.504901e-02 -2.927348e-01
         +1.986130e-03 +1.416225e-03 -1.376110e-02 +7.412669e-03 +5.504901e-02 -2.927348e-01 +1.704486e-01 -8.960339e-02
29.031875 +1.641680e-01 -9.218137e-02 -2.372463e-02 -2.956308e-01 -1.367712e-02 +7.590559e-03 +2.288554e-03 +8.502190e-04
         -2.372463e-02 -2.956308e-01 +1.641680e-01 -9.218137e-02 +2.288554e-03 +8.502190e-04 -1.367712e-02 +7.590559e-03
         -1.367712e-02 +7.590559e-03 +2.288554e-03 +8.502190e-04 +1.641680e-01 -9.218137e-02 -2.372463e-02 -2.956308e-01
         +2.288554e-03 +8.502190e-04 -1.367712e-02 +7.590559e-03 -2.372463e-02 -2.956308e-01 +1.641680e-01 -9.218137e-02
29.131813 +1.577244e-01 -9.431973e-02 -1.001413e-01 -2.777962e-01 -1.359079e-02 +7.767477e-03 +2.433070e-03 +2.244221e-04
         -1.001413e-01 -2.777962e-01 +1.577244e-01 -9.431973e-02 +2.433070e-03 +2.244221e-04 -1.359079e-02 +7.767477e-03
         -1.359079e-02 +7.767477e-03 +2.433070e-03 +2.244221e-04 +1.577244e-01 -9.431973e-02 -1.001413e-01 -2.777962e-01
         +2.433070e-03 +2.244221e-04 -1.359079e-02 +7.767477e-03 -1.001413e-01 -2.777962e-01 +1.577244e-01 -9.431973e-02
29.231750 +1.511487e-01 -9.600828e-02 -1.688694e-01 -2.406733e-01 -1.350212e-02 +7.943391e-03 +2.409412e-03 -4.179362e-04
         -1.688694e-01 -2.406733e-01 +1.511487e-01 -9.600828e-02 +2.409412e-03 -4.179362e-04 -1.350212e-02 +7.943391e-03
         -1.350212e-02 +7.943391e-03 +2.409412e-03 -4.179362e-04 +1.511487e-01 -9.600828e-02 -1.688694e-01 -2.406733e-01
         +2.409412e-03 -4.179362e-04 -1.350212e-02 +7.943391e-03 -1.688694e-01 -2.406733e-01 +1.511487e-01 -9.600828e-02
29.331688 +1.444720e-01 -9.723896e-02 -2.251689e-01 -1.870418e-01 -1.341112e-02 +8.118270e-03 +2.218944e-03 -1.032408e-03
         -2.251689e-01 -1.870418e-01 +1.444720e-01 -9.723896e-02 +2.218944e-03 -1.032408e-03 -1.341112e-02 +8.118270e-03
         -1.341112e-02 +8.118270e-03 +2.218944e-03 -1.032408e-03 +1.444720e-01 -9.723896e-02 -2.251689e-01 -1.870418e-01
         +2.218944e-03 -1.032408e-03 -1.341112e-02 +8.118270e-03 -2.251689e-01 -1.870418e-01 +1.444720e-01 -9.723896e-02
29.431625 +1.377264e-01 -9.800591e-02 -2.652175e-01 -1.208097e-01 -1.331780e-02 +8.292083e-03 +1.874584e-03 -1.576406e-03
         -2.652175e-01 -1.208097e-01 +1.377264e-01 -9.800591e-02 +1.874584e-03 -1.576406e-03 -1.331780e-02 +8.292083e-03
         -1.331780e-02 +8.292083e-03 +1.874584e-03 -1.576406e-03 +1.377264e-01 -9.800591e-02 -2.652175e-01 -1.208097e-01
         +1.874584e-03 -1.576406e-03 -1.331780e-02 +8.292083e-03 -2.652175e-01 -1.208097e-01 +1.377264e-01 -9.800591e-02
29.531562 +1.309439e-01 -9.830547e-02 -2.863680e-01 -4.672715e-02 -1.322218e-02 +8.464799e-03 +1.399929e-03 -2.012154e-03
         -2.863680e-01 -4.672715e-02 +1.309439e-01 -9.830547e-02 +1.399929e-03 -2.012154e-03 -1.322218e-02 +8.464799e-03
         -1.322218e-02 +8.464799e-03 +1.399929e-03 -2.012154e-03 +1.309439e-01 -9.830547e-02 -2.863680e-01 -4.672715e-02
         +1.399929e-03 -2.012154e-03 -1.322218e-02 +8.464799e-03 -2.863680e-01 -4.672715e-02 +1.309439e-01 -9.830547e-02
29.631500 +1.241569e-01 -9.813620e-02 -2.873210e-01 +2.995448e-02 -1.312427e-02 +8.636386e-03 +8.276358e-04 -2.309313e-03
         -2.873210e-01 +2.995448e-02 +1.241569e-01 -9.813620e-02 +8.276358e-04 -2.309313e-03 -1.312427e-02 +8.636386e-03
         -1.312427e-02 +8.636386e-03 +8.276358e-04 -2.309313e-03 +1.241569e-01 -9.813620e-02 -2.873210e-01 +2.995448e-02
         +8.276358e-04 -2.309313e-03 -1.312427e-02 +8.636386e-03 -2.873210e-01 +2.995448e-02 +1.241569e-01 -9.813620e-02
29.731438 +1.173978e-01 -9.749892e-02 -2.682011e-01 +1.038552e-01 -1.302408e-02 +8.806815e-03 +1.971744e-04 -2.447095e-03
         -2.682011e-01 +1.038552e-01 +1.173978e-01 -9.749892e-02 +1.971744e-04 -2.447095e-03 -1.302408e-02 +8.806815e-03
         -1.302408e-02 +8.806815e-03 +1.971744e-04 -2.447095e-03 +1.173978e-01 -9.749892e-02 -2.682011e-01 +1.038552e-01
         +1.971744e-04 -2.447095e-03 -1.302408e-02 +8.806815e-03 -2.682011e-01 +1.038552e-01 +1.173978e-01 -9.749892e-02
29.831375 +1.106988e-01 -9.639667e-02 -2.305324e-01 +1.698431e-01 -1.292164e-02 +8.976055e-03 -4.478965e-04 -2.415716e-03
         -2.305324e-01 +1.698431e-01 +1.106988e-01 -9.639667e-02 -4.478965e-04 -2.415716e-03 -1.292164e-02 +8.976055e-03
         -1.292164e-02 +8.976055e-03 -4.478965e-04 -2.415716e-03 +1.106988e-01 -9.639667e-02 -2.305324e-01 +1.698431e-01
         -4.478965e-04 -2.415716e-03 -1.292164e-02 +8.976055e-03 -2.305324e-01 +1.698431e-01 +1.106988e-01 -9.639667e-02
29.931313 +1.040918e-01 -9.483470e-02 -1.771178e-01 +2.233898e-01 -1.281694e-02 +9.144076e-03 -1.062940e-03 -2.217092e-03
         -1.771178e-01 +2.233898e-01 +1.040918e-01 -9.483470e-02 -1.062940e-03 -2.217092e-03 -1.281694e-02 +9.144076e-03
         -1.281694e-02 +9.144076e-03 -1.062940e-03 -2.217092e-03 +1.040918e-01 -9.483470e-02 -1.771178e-01 +2.233898e-01
         -1.062940e-03 -2.217092e-03 -1.281694e-02 +9.144076e-03 -1.771178e-01 +2.233898e-01 +1.040918e-01 -9.483470e-02
30.031250 +9.760836e-02 -9.282046e-02 -1.118292e-01 +2.608794e-01 -1.271002e-02 +9.310848e-03 -1.605332e-03 -1.864724e-03
         -1.118292e-01 +2.608794e-01 +9.760836e-02 -9.282046e-02 -1.605332e-03 -1.864724e-03 -1.271002e-02 +9.310848e-03
         -1.271002e-02 +9.310848e-03 -1.605332e-03 -1.864724e-03 +9.760836e-02 -9.282046e-02 -1.118292e-01 +2.608794e-01
         -1.605332e-03 -1.864724e-03 -1.271002e-02 +9.310848e-03 -1.118292e-01 +2.608794e-01 +9.760836e-02 -9.282046e-02
30.131188 +9.127942e-02 -9.036356e-02 -3.932704e-02 +2.798501e-01 -1.260088e-02 +9.476340e-03 -2.037415e-03 -1.382779e-03
         -3.932704e-02 +2.798501e-01 +9.127942e-02 -9.036356e-02 -2.037415e-03 -1.382779e-03 -1.260088e-02 +9.476340e-03
         -1.260088e-02 +9.476340e-03 -2.037415e-03 -1.382779e-03 +9.127942e-02 -9.036356e-02 -3.932704e-02 +2.798501e-01
         -2.037415e-03 -1.382779e-03 -1.260088e-02 +9.476340e-03 -3.932704e-02 +2.798501e-01 +9.127942e-02 -9.036356e-02
30.231125 +8.513513e-02 -8.747571e-02 +3.527257e-02 +2.791534e-01 -1.248954e-02 +9.640523e-03 -2.329116e-03 -8.044306e-04
         +3.527257e-02 +2.791534e-01 +8.513513e-02 -8.747571e-02 -2.329116e-03 -8.044306e-04 -1.248954e-02 +9.640523e-03
         -1.248954e-02 +9.640523e-03 -2.329116e-03 -8.044306e-04 +8.513513e-02 -8.747571e-02 +3.527257e-02 +2.791534e-01
         -2.329116e-03 -8.044306e-04 -1.248954e-02 +9.640523e-03 +3.527257e-02 +2.791534e-01 +8.513513e-02 -8.747571e-02
30.331063 +7.920481e-02 -8.417069e-02 +1.067578e-01 +2.590199e-01 -1.237603e-02 +9.803368e-03 -2.460038e-03 -1.695786e-04
         +1.067578e-01 +2.590199e-01 +7.920481e-02 -8.417069e-02 -2.460038e-03 -1.695786e-04 -1.237603e-02 +9.803368e-03
         -1.237603e-02 +9.803368e-03 -2.460038e-03 -1.695786e-04 +7.920481e-02 -8.417069e-02 +1.067578e-01 +2.590199e-01
         -2.460038e-03 -1.695786e-04 -1.237603e-02 +9.803368e-03 +1.067578e-01 +2.590199e-01 +7.920481e-02 -8.417069e-02
30.431000 +7.351673e-02 -8.046425e-02 +1.701840e-01 +2.210288e-01 -1.226034e-02 +9.964845e-03 -2.420889e-03 +4.779089e-04
         +1.701840e-01 +2.210288e-01 +7.351673e-02 -8.046425e-02 -2.420889e-03 +4.779089e-04 -1.226034e-02 +9.964845e-03
         -1.226034e-02 +9.964845e-03 -2.420889e-03 +4.779089e-04 +7.351673e-02 -8.046425e-02 +1.701840e-01 +2.210288e-01
         -2.420889e-03 +4.779089e-04 -1.226034e-02 +9.964845e-03 +1.701840e-01 +2.210288e-01 +7.351673e-02 -8.046425e-02
30.530938 +6.809802e-02 -7.637408e-02 +2.212143e-01 +1.679846e-01 -1.214251e-02 +1.012493e-02 -2.214141e-03 +1.093227e-03
         +2.212143e-01 +1.679846e-01 +6.809802e-02 -7.637408e-02 -2.214141e-03 +1.093227e-03 -1.214251e-02 +1.012493e-02
         -1.214251e-02 +1.012493e-02 -2.214141e-03 +1.093227e-03 +6.809802e-02 -7.637408e-02 +2.212143e-01 +1.679846e-01
         -2.214141e-03 +1.093227e-03 -1.214251e-02 +1.012493e-02 +2.212143e-01 +1.679846e-01 +6.809802e-02 -7.637408e-02
30.630875 +6.297452e-02 -7.191968e-02 +2.564133e-01 +1.037098e-01 -1.202254e-02 +1.028358e-02 -1.853871e-03 +1.633735e-03
         +2.564133e-01 +1.037098e-01 +6.297452e-02 -7.191968e-02 -1.853871e-03 +1.633735e-03 -1.202254e-02 +1.028358e-02
         -1.202254e-02 +1.028358e-02 -1.853871e-03 +1.633735e-03 +6.297452e-02 -7.191968e-02 +2.564133e-01 +1.037098e-01
         -1.853871e-03 +1.633735e-03 -1.202254e-02 +1.028358e-02 +2.564133e-01 +1.037098e-01 +6.297452e-02 -7.191968e-02
30.730813 +5.817066e-02 -6.712230e-02 +2.734768e-01 +3.277033e-02 -1.190047e-02 +1.044078e-02 -1.364810e-03 +2.061914e-03
         +2.734768e-01 +3.277033e-02 +5.817066e-02 -6.712230e-02 -1.364810e-03 +2.061914e-03 -1.190047e-02 +1.044078e-02
         -1.190047e-02 +1.044078e-02 -1.364810e-03 +2.061914e-03 +5.817066e-02 -6.712230e-02 +2.734768e-01 +3.277033e-02
         -1.364810e-03 +2.061914e-03 -1.190047e-02 +1.044078e-02 +2.734768e-01 +3.277033e-02 +5.817066e-02 -6.712230e-02
30.830750 +5.370937e-02 -6.200480e-02 +2.713793e-01 -3.984804e-02 -1.177629e-02 +1.059650e-02 -7.806385e-04 +2.347972e-03
         +2.713793e-01 -3.984804e-02 +5.370937e-02 -6.200480e-02 -7.806385e-04 +2.347972e-03 -1.177629e-02 +1.059650e-02
         -1.177629e-02 +1.059650e-02 -7.806385e-04 +2.347972e-03 +5.370937e-02 -6.200480e-02 +2.713793e-01 -3.984804e-02
         -7.806385e-04 +2.347972e-03 -1.177629e-02 +1.059650e-02 +2.713793e-01 -3.984804e-02 +5.370937e-02 -6.200480e-02
30.930688 +4.961190e-02 -5.659160e-02 +2.504331e-01 -1.090888e-01 -1.165005e-02 +1.075071e-02 -1.416663e-04 +2.471918e-03
         +2.504331e-01 -1.090888e-01 +4.961190e-02 -5.659160e-02 -1.416663e-04 +2.471918e-03 -1.165005e-02 +1.075071e-02
         -1.165005e-02 +1.075071e-02 -1.416663e-04 +2.471918e-03 +4.961190e-02 -5.659160e-02 +2.504331e-01 -1.090888e-01
         -1.416663e-04 +2.471918e-03 -1.165005e-02 +1.075071e-02 +2.504331e-01 -1.090888e-01 +4.961190e-02 -5.659160e-02
31.030625 +4.589781e-02 -5.090852e-02 +2.122538e-01 -1.701750e-01 -1.152175e-02 +1.090338e-02 +5.079473e-04 +2.424957e-03
         +2.122538e-01 -1.701750e-01 +4.589781e-02 -5.090852e-02 +5.079473e-04 +2.424957e-03 -1.152175e-02 +1.090338e-02
         -1.152175e-02 +1.090338e-02 +5.079473e-04 +2.424957e-03 +4.589781e-02 -5.090852e-02 +2.122538e-01 -1.701750e-01
         +5.079473e-04 +2.424957e-03 -1.152175e-02 +1.090338e-02 +2.122538e-01 -1.701750e-01 +4.589781e-02 -5.090852e-02
31.130562 +4.258480e-02 -4.498265e-02 +1.596362e-01 -2.189366e-01 -1.139141e-02 +1.105449e-02 +1.123249e-03 +2.210119e-03
         +1.596362e-01 -2.189366e-01 +4.258480e-02 -4.498265e-02 +1.123249e-03 +2.210119e-03 -1.139141e-02 +1.105449e-02
         -1.139141e-02 +1.105449e-02 +1.123249e-03 +2.210119e-03 +4.258480e-02 -4.498265e-02 +1.596362e-01 -2.189366e-01
         +1.123249e-03 +2.210119e-03 -1.139141e-02 +1.105449e-02 +1.596362e-01 -2.189366e-01 +4.258480e-02 -4.498265e-02
31.230500 +3.968868e-02 -3.884226e-02 +9.635080e-02 -2.520931e-01 -1.125905e-02 +1.120400e-02 +1.661604e-03 +1.842059e-03
         +9.635080e-02 -2.520931e-01 +3.968868e-02 -3.884226e-02 +1.661604e-03 +1.842059e-03 -1.125905e-02 +1.120400e-02
         -1.125905e-02 +1.120400e-02 +1.661604e-03 +1.842059e-03 +3.968868e-02 -3.884226e-02 +9.635080e-02 -2.520931e-01
         +1.661604e-03 +1.842059e-03 -1.125905e-02 +1.120400e-02 +9.635080e-02 -2.520931e-01 +3.968868e-02 -3.884226e-02
31.330438 +3.722325e-02 -3.251663e-02 +2.687461e-02 -2.674721e-01 -1.112470e-02 +1.135190e-02 +2.085648e-03 +1.346060e-03
         +2.687461e-02 -2.674721e-01 +3.722325e-02 -3.251663e-02 +2.085648e-03 +1.346060e-03 -1.112470e-02 +1.135190e-02
         -1.112470e-02 +1.135190e-02 +2.085648e-03 +1.346060e-03 +3.722325e-02 -3.251663e-02 +2.687461e-02 -2.674721e-01
         +2.085648e-03 +1.346060e-03 -1.112470e-02 +1.135190e-02 +2.687461e-02 -2.674721e-01 +3.722325e-02 -3.251663e-02
31.430375 +3.520028e-02 -2.603593e-02 -4.392408e-02 -2.641498e-01 -1.098837e-02 +1.149815e-02 +2.365889e-03 +7.562937e-04
         -4.392408e-02 -2.641498e-01 +3.520028e-02 -2.603593e-02 +2.365889e-03 +7.562937e-04 -1.098837e-02 +1.149815e-02
         -1.098837e-02 +1.149815e-02 +2.365889e-03 +7.562937e-04 +3.520028e-02 -2.603593e-02 -4.392408e-02 -2.641498e-01
         +2.365889e-03 +7.562937e-04 -1.098837e-02 +1.149815e-02 -4.392408e-02 -2.641498e-01 +3.520028e-02 -2.603593e-02
31.530313 +3.362941e-02 -1.943106e-02 -1.111250e-01 -2.425041e-01 -1.085008e-02 +1.164272e-02 +2.482750e-03 +1.134683e-04
         -1.111250e-01 -2.425041e-01 +3.362941e-02 -1.943106e-02 +2.482750e-03 +1.134683e-04 -1.085008e-02 +1.164272e-02
         -1.085008e-02 +1.164272e-02 +2.482750e-03 +1.134683e-04 +3.362941e-02 -1.943106e-02 -1.111250e-01 -2.425041e-01
         +2.482750e-03 +1.134683e-04 -1.085008e-02 +1.164272e-02 -1.111250e-01 -2.425041e-01 +3.362941e-02 -1.943106e-02
31.630250 +3.251814e-02 -1.273353e-02 -1.700959e-01 -2.041778e-01 -1.070986e-02 +1.178560e-02 +2.427943e-03 -5.379865e-04
         -1.700959e-01 -2.041778e-01 +3.251814e-02 -1.273353e-02 +2.427943e-03 -5.379865e-04 -1.070986e-02 +1.178560e-02
         -1.070986e-02 +1.178560e-02 +2.427943e-03 -5.379865e-04 +3.251814e-02 -1.273353e-02 -1.700959e-01 -2.041778e-01
         +2.427943e-03 -5.379865e-04 -1.070986e-02 +1.178560e-02 -1.700959e-01 -2.041778e-01 +3.251814e-02 -1.273353e-02
31.730188 +3.187176e-02 -5.975264e-03 -2.168098e-01 -1.519549e-01 -1.056773e-02 +1.192675e-02 +2.205058e-03 -1.152989e-03
         -2.168098e-01 -1.519549e-01 +3.187176e-02 -5.975264e-03 +2.205058e-03 -1.152989e-03 -1.056773e-02 +1.192675e-02
         -1.056773e-02 +1.192675e-02 +2.205058e-03 -1.152989e-03 +3.187176e-02 -5.975264e-03 -2.168098e-01 -1.519549e-01
         +2.205058e-03 -1.152989e-03 -1.056773e-02 +1.192675e-02 -2.168098e-01 -1.519549e-01 +3.187176e-02 -5.975264e-03
31.830125 +3.169335e-02 +8.114941e-04 -2.481181e-01 -8.956044e-02 -1.042371e-02 +1.206614e-02 +1.829320e-03 -1.688929e-03
         -2.481181e-01 -8.956044e-02 +3.169335e-02 +8.114941e-04 +1.829320e-03 -1.688929e-03 -1.042371e-02 +1.206614e-02
         -1.042371e-02 +1.206614e-02 +1.829320e-03 -1.688929e-03 +3.169335e-02 +8.114941e-04 -2.481181e-01 -8.956044e-02
         +1.829320e-03 -1.688929e-03 -1.042371e-02 +1.206614e-02 -2.481181e-01 -8.956044e-02 +3.169335e-02 +8.114941e-04
31.930062 +3.198377e-02 +7.594382e-03 -2.619617e-01 -2.139557e-02 -1.027782e-02 +1.220377e-02 +1.326560e-03 -2.108619e-03
         -2.619617e-01 -2.139557e-02 +3.198377e-02 +7.594382e-03 +1.326560e-03 -2.108619e-03 -1.027782e-02 +1.220377e-02
         -1.027782e-02 +1.220377e-02 +1.326560e-03 -2.108619e-03 +3.198377e-02 +7.594382e-03 -2.619617e-01 -2.139557e-02
         +1.326560e-03 -2.108619e-03 -1.027782e-02 +1.220377e-02 -2.619617e-01 -2.139557e-02 +3.198377e-02 +7.594382e-03
32.030000 +3.274163e-02 +1.434105e-02 -2.575045e-01 +4.777050e-02 -1.013008e-02 +1.233959e-02 +7.314295e-04 -2.382875e-03
         -2.575045e-01 +4.777050e-02 +3.274163e-02 +1.434105e-02 +7.314295e-04 -2.382875e-03 -1.013008e-02 +1.233959e-02
         -1.013008e-02 +1.233959e-02 +7.314295e-04 -2.382875e-03 +3.274163e-02 +1.434105e-02 -2.575045e-01 +4.777050e-02
         +7.314295e-04 -2.382875e-03 -1.013008e-02 +1.233959e-02 -2.575045e-01 +4.777050e-02 +3.274163e-02 +1.434105e-02
32.129937 +3.396332e-02 +2.101933e-02 -2.351833e-01 +1.131325e-01 -9.980526e-03 +1.247359e-02 +8.501432e-05 -2.492551e-03
         -2.351833e-01 +1.131325e-01 +3.396332e-02 +2.101933e-02 +8.501432e-05 -2.492551e-03 -9.980526e-03 +1.247359e-02
         -9.980526e-03 +1.247359e-02 +8.501432e-05 -2.492551e-03 +3.396332e-02 +2.101933e-02 -2.351833e-01 +1.131325e-01
         +8.501432e-05 -2.492551e-03 -9.980526e-03 +1.247359e-02 -2.351833e-01 +1.131325e-01 +3.396332e-02 +2.101933e-02
32.229875 +3.564301e-02 +2.759737e-02 -1.966685e-01 +1.701809e-01 -9.829169e-03 +1.260573e-02 -5.680022e-04 -2.429872e-03
         -1.966685e-01 +1.701809e-01 +3.564301e-02 +2.759737e-02 -5.680022e-04 -2.429872e-03 -9.829169e-03 +1.260573e-02
         -9.829169e-03 +1.260573e-02 -5.680022e-04 -2.429872e-03 +3.564301e-02 +2.759737e-02 -1.966685e-01 +1.701809e-01
         -5.680022e-04 -2.429872e-03 -9.829169e-03 +1.260573e-02 -1.966685e-01 +1.701809e-01 +3.564301e-02 +2.759737e-02
32.329813 +3.777269e-02 +3.404379e-02 -1.447412e-01 +2.150115e-01 -9.676037e-03 +1.273600e-02 -1.182431e-03 -2.198985e-03
         -1.447412e-01 +2.150115e-01 +3.777269e-02 +3.404379e-02 -1.182431e-03 -2.198985e-03 -9.676037e-03 +1.273600e-02
         -9.676037e-03 +1.273600e-02 -1.182431e-03 -2.198985e-03 +3.777269e-02 +3.404379e-02 -1.447412e-01 +2.150115e-01
         -1.182431e-03 -2.198985e-03 -9.676037e-03 +1.273600e-02 -1.447412e-01 +2.150115e-01 +3.777269e-02 +3.404379e-02
32.429750 +4.034221e-02 +4.032786e-02 -8.309384e-02 +2.445915e-01 -9.521153e-03 +1.286438e-02 -1.715703e-03 -1.815689e-03
         -8.309384e-02 +2.445915e-01 +4.034221e-02 +4.032786e-02 -1.715703e-03 -1.815689e-03 -9.521153e-03 +1.286438e-02
         -9.521153e-03 +1.286438e-02 -1.715703e-03 -1.815689e-03 +4.034221e-02 +4.032786e-02 -8.309384e-02 +2.445915e-01
         -1.715703e-03 -1.815689e-03 -9.521153e-03 +1.286438e-02 -8.309384e-02 +2.445915e-01 +4.034221e-02 +4.032786e-02
32.529687 +4.333930e-02 +4.641960e-02 -1.606968e-02 +2.569637e-01 -9.364542e-03 +1.299083e-02 -2.130825e-03 -1.306347e-03
         -1.606968e-02 +2.569637e-01 +4.333930e-02 +4.641960e-02 -2.130825e-03 -1.306347e-03 -9.364542e-03 +1.299083e-02
         -9.364542e-03 +1.299083e-02 -2.130825e-03 -1.306347e-03 +4.333930e-02 +4.641960e-02 -1.606968e-02 +2.569637e-01
         -2.130825e-03 -1.306347e-03 -9.364542e-03 +1.299083e-02 -1.606968e-02 +2.569637e-01 +4.333930e-02 +4.641960e-02
32.629625 +4.674968e-02 +5.228997e-02 +5.164125e-02 +2.513757e-01 -9.206228e-03 +1.311533e-02 -2.398940e-03 -7.060782e-04
         +5.164125e-02 +2.513757e-01 +4.674968e-02 +5.228997e-02 -2.398940e-03 -7.060782e-04 -9.206228e-03 +1.311533e-02
         -9.206228e-03 +1.311533e-02 -2.398940e-03 -7.060782e-04 +4.674968e-02 +5.228997e-02 +5.164125e-02 +2.513757e-01
         -2.398940e-03 -7.060782e-04 -9.206228e-03 +1.311533e-02 +5.164125e-02 +2.513757e-01 +4.674968e-02 +5.228997e-02
32.729563 +5.055709e-02 +5.791097e-02 +1.153286e-01 +2.283251e-01 -9.046236e-03 +1.323787e-02 -2.501339e-03 -5.633309e-05
         +1.153286e-01 +2.283251e-01 +5.055709e-02 +5.791097e-02 -2.501339e-03 -5.633309e-05 -9.046236e-03 +1.323787e-02
         -9.046236e-03 +1.323787e-02 -2.501339e-03 -5.633309e-05 +5.055709e-02 +5.791097e-02 +1.153286e-01 +2.283251e-01
         -2.501339e-03 -5.633309e-05 -9.046236e-03 +1.323787e-02 +1.153286e-01 +2.283251e-01 +5.055709e-02 +5.791097e-02
32.829500 +5.474336e-02 +6.325578e-02 +1.705879e-01 +1.895190e-01 -8.884591e-03 +1.335842e-02 -2.430767e-03 +5.979713e-04
         +1.705879e-01 +1.895190e-01 +5.474336e-02 +6.325578e-02 -2.430767e-03 +5.979713e-04 -8.884591e-03 +1.335842e-02
         -8.884591e-03 +1.335842e-02 -2.430767e-03 +5.979713e-04 +5.474336e-02 +6.325578e-02 +1.705879e-01 +1.895190e-01
         -2.430767e-03 +5.979713e-04 -8.884591e-03 +1.335842e-02 +1.705879e-01 +1.895190e-01 +5.474336e-02 +6.325578e-02
32.929437 +5.928853e-02 +6.829893e-02 +2.136240e-01 +1.377489e-01 -8.721319e-03 +1.347695e-02 -2.191931e-03 +1.211556e-03
         +2.136240e-01 +1.377489e-01 +5.928853e-02 +6.829893e-02 -2.191931e-03 +1.211556e-03 -8.721319e-03 +1.347695e-02
         -8.721319e-03 +1.347695e-02 -2.191931e-03 +1.211556e-03 +5.928853e-02 +6.829893e-02 +2.136240e-01 +1.377489e-01
         -2.191931e-03 +1.211556e-03 -8.721319e-03 +1.347695e-02 +2.136240e-01 +1.377489e-01 +5.928853e-02 +6.829893e-02
33.029375 +6.417092e-02 +7.301636e-02 +2.415115e-01 +7.669234e-02 -8.556445e-03 +1.359345e-02 -1.801195e-03 +1.741917e-03
         +2.415115e-01 +7.669234e-02 +6.417092e-02 +7.301636e-02 -1.801195e-03 +1.741917e-03 -8.556445e-03 +1.359345e-02
         -8.556445e-03 +1.359345e-02 -1.801195e-03 +1.741917e-03 +6.417092e-02 +7.301636e-02 +2.415115e-01 +7.669234e-02
         -1.801195e-03 +1.741917e-03 -8.556445e-03 +1.359345e-02 +2.415115e-01 +7.669234e-02 +6.417092e-02 +7.301636e-02
33.129312 +6.936726e-02 +7.738557e-02 +2.523931e-01 +1.065349e-02 -8.389996e-03 +1.370790e-02 -1.285451e-03 +2.152267e-03
         +2.523931e-01 +1.065349e-02 +6.936726e-02 +7.738557e-02 -1.285451e-03 +2.152267e-03 -8.389996e-03 +1.370790e-02
         -8.389996e-03 +1.370790e-02 -1.285451e-03 +2.152267e-03 +6.936726e-02 +7.738557e-02 +2.523931e-01 +1.065349e-02
         -1.285451e-03 +2.152267e-03 -8.389996e-03 +1.370790e-02 +2.523931e-01 +1.065349e-02 +6.936726e-02 +7.738557e-02
33.229250 +7.485275e-02 +8.138573e-02 +2.456043e-01 -5.573860e-02 -8.221998e-03 +1.382027e-02 -6.802711e-04 +2.414091e-03
         +2.456043e-01 -5.573860e-02 +7.485275e-02 +8.138573e-02 -6.802711e-04 +2.414091e-03 -8.221998e-03 +1.382027e-02
         -8.221998e-03 +1.382027e-02 -6.802711e-04 +2.414091e-03 +7.485275e-02 +8.138573e-02 +2.456043e-01 -5.573860e-02
         -6.802711e-04 +2.414091e-03 -8.221998e-03 +1.382027e-02 +2.456043e-01 -5.573860e-02 +7.485275e-02 +8.138573e-02
33.329188 +8.060125e-02 +8.499776e-02 +2.217141e-01 -1.178530e-01 -8.052478e-03 +1.393053e-02 -2.745248e-05 +2.509130e-03
         +2.217141e-01 -1.178530e-01 +8.060125e-02 +8.499776e-02 -2.745248e-05 +2.509130e-03 -8.052478e-03 +1.393053e-02
         -8.052478e-03 +1.393053e-02 -2.745248e-05 +2.509130e-03 +8.060125e-02 +8.499776e-02 +2.217141e-01 -1.178530e-01
         -2.745248e-05 +2.509130e-03 -8.052478e-03 +1.393053e-02 +2.217141e-01 -1.178530e-01 +8.060125e-02 +8.499776e-02
33.429125 +8.658532e-02 +8.820443e-02 +1.824804e-01 -1.713791e-01 -7.881461e-03 +1.403868e-02 +6.278712e-04 +2.430650e-03
         +1.824804e-01 -1.713791e-01 +8.658532e-02 +8.820443e-02 +6.278712e-04 +2.430650e-03 -7.881461e-03 +1.403868e-02
         -7.881461e-03 +1.403868e-02 +6.278712e-04 +2.430650e-03 +8.658532e-02 +8.820443e-02 +1.824804e-01 -1.713791e-01
         +6.278712e-04 +2.430650e-03 -7.881461e-03 +1.403868e-02 +1.824804e-01 -1.713791e-01 +8.658532e-02 +8.820443e-02
33.529062 +9.277644e-02 +9.099046e-02 +1.307228e-01 -2.126254e-01 -7.708976e-03 +1.414470e-02 +1.240351e-03 +2.183923e-03
         +1.307228e-01 -2.126254e-01 +9.277644e-02 +9.099046e-02 +1.240351e-03 +2.183923e-03 -7.708976e-03 +1.414470e-02
         -7.708976e-03 +1.414470e-02 +1.240351e-03 +2.183923e-03 +9.277644e-02 +9.099046e-02 +1.307228e-01 -2.126254e-01
         +1.240351e-03 +2.183923e-03 -7.708976e-03 +1.414470e-02 +1.307228e-01 -2.126254e-01 +9.277644e-02 +9.099046e-02
33.629000 +9.914509e-02 +9.334254e-02 +7.012185e-02 -2.387744e-01 -7.535050e-03 +1.424855e-02 +1.767563e-03 +1.785871e-03
         +7.012185e-02 -2.387744e-01 +9.914509e-02 +9.334254e-02 +1.767563e-03 +1.785871e-03 -7.535050e-03 +1.424855e-02
         -7.535050e-03 +1.424855e-02 +1.767563e-03 +1.785871e-03 +9.914509e-02 +9.334254e-02 +7.012185e-02 -2.387744e-01
         +1.767563e-03 +1.785871e-03 -7.535050e-03 +1.424855e-02 +7.012185e-02 -2.387744e-01 +9.914509e-02 +9.334254e-02
33.728938 +1.056609e-01 +9.524948e-02 +4.959268e-03 -2.480757e-01 -7.359711e-03 +1.435022e-02 +2.172946e-03 +1.263905e-03
         +4.959268e-03 -2.480757e-01 +1.056609e-01 +9.524948e-02 +2.172946e-03 +1.263905e-03 -7.359711e-03 +1.435022e-02
         -7.359711e-03 +1.435022e-02 +2.172946e-03 +1.263905e-03 +1.056609e-01 +9.524948e-02 +4.959268e-03 -2.480757e-01
         +2.172946e-03 +1.263905e-03 -7.359711e-03 +1.435022e-02 +4.959268e-03 -2.480757e-01 +1.056609e-01 +9.524948e-02
33.828875 +1.122927e-01 +9.670217e-02 -6.018352e-02 -2.399647e-01 -7.182986e-03 +1.444970e-02 +2.428339e-03 +6.540387e-04
         -6.018352e-02 -2.399647e-01 +1.122927e-01 +9.670217e-02 +2.428339e-03 +6.540387e-04 -7.182986e-03 +1.444970e-02
         -7.182986e-03 +1.444970e-02 +2.428339e-03 +6.540387e-04 +1.122927e-01 +9.670217e-02 -6.018352e-02 -2.399647e-01
         +2.428339e-03 +6.540387e-04 -7.182986e-03 +1.444970e-02 -6.018352e-02 -2.399647e-01 +1.122927e-01 +9.670217e-02
33.928812 +1.190090e-01 +9.769368e-02 -1.207466e-01 -2.150973e-01 -7.004903e-03 +1.454696e-02 +2.515941e-03 -1.600573e-06
         -1.207466e-01 -2.150973e-01 +1.190090e-01 +9.769368e-02 +2.515941e-03 -1.600573e-06 -7.004903e-03 +1.454696e-02
         -7.004903e-03 +1.454696e-02 +2.515941e-03 -1.600573e-06 +1.190090e-01 +9.769368e-02 -1.207466e-01 -2.150973e-01
         +2.515941e-03 -1.600573e-06 -7.004903e-03 +1.454696e-02 -1.207466e-01 -2.150973e-01 +1.190090e-01 +9.769368e-02
34.028750 +1.257778e-01 +9.821929e-02 -1.725108e-01 -1.753000e-01 -6.825492e-03 +1.464199e-02 +2.429547e-03 -6.576805e-04
         -1.725108e-01 -1.753000e-01 +1.257778e-01 +9.821929e-02 +2.429547e-03 -6.576805e-04 -6.825492e-03 +1.464199e-02
         -6.825492e-03 +1.464199e-02 +2.429547e-03 -6.576805e-04 +1.257778e-01 +9.821929e-02 -1.725108e-01 -1.753000e-01
         +2.429547e-03 -6.576805e-04 -6.825492e-03 +1.464199e-02 -1.725108e-01 -1.753000e-01 +1.257778e-01 +9.821929e-02
34.128687 +1.325666e-01 +9.827649e-02 -2.118917e-01 -1.234379e-01 -6.644781e-03 +1.473476e-02 +2.174989e-03 -1.268800e-03
         -2.118917e-01 -1.234379e-01 +1.325666e-01 +9.827649e-02 +2.174989e-03 -1.268800e-03 -6.644781e-03 +1.473476e-02
         -6.644781e-03 +1.473476e-02 +2.174989e-03 -1.268800e-03 +1.325666e-01 +9.827649e-02 -2.118917e-01 -1.234379e-01
         +2.174989e-03 -1.268800e-03 -6.644781e-03 +1.473476e-02 -2.118917e-01 -1.234379e-01 +1.325666e-01 +9.827649e-02
34.228625 +1.393433e-01 +9.786501e-02 -2.361893e-01 -6.320994e-02 -6.462798e-03 +1.482526e-02 +1.769747e-03 -1.792634e-03
         -2.361893e-01 -6.320994e-02 +1.393433e-01 +9.786501e-02 +1.769747e-03 -1.792634e-03 -6.462798e-03 +1.482526e-02
         -6.462798e-03 +1.482526e-02 +1.769747e-03 -1.792634e-03 +1.393433e-01 +9.786501e-02 -2.361893e-01 -6.320994e-02
         +1.769747e-03 -1.792634e-03 -6.462798e-03 +1.482526e-02 -2.361893e-01 -6.320994e-02 +1.393433e-01 +9.786501e-02
34.328562 +1.460753e-01 +9.698680e-02 -2.437744e-01 +1.113737e-03 -6.279573e-03 +1.491348e-02 +1.241741e-03 -2.192863e-03
         -2.437744e-01 +1.113737e-03 +1.460753e-01 +9.698680e-02 +1.241741e-03 -2.192863e-03 -6.279573e-03 +1.491348e-02
         -6.279573e-03 +1.491348e-02 +1.241741e-03 -2.192863e-03 +1.460753e-01 +9.698680e-02 -2.437744e-01 +1.113737e-03
         +1.241741e-03 -2.192863e-03 -6.279573e-03 +1.491348e-02 -2.437744e-01 +1.113737e-03 +1.460753e-01 +9.698680e-02
34.428500 +1.527307e-01 +9.564607e-02 -2.341992e-01 +6.499365e-02 -6.095136e-03 +1.499939e-02 +6.274107e-04 -2.441693e-03
         -2.341992e-01 +6.499365e-02 +1.527307e-01 +9.564607e-02 +6.274107e-04 -2.441693e-03 -6.095136e-03 +1.499939e-02
         -6.095136e-03 +1.499939e-02 +6.274107e-04 -2.441693e-03 +1.527307e-01 +9.564607e-02 -2.341992e-01 +6.499365e-02
         +6.274107e-04 -2.441693e-03 -6.095136e-03 +1.499939e-02 -2.341992e-01 +6.499365e-02 +1.527307e-01 +9.564607e-02
34.528437 +1.592777e-01 +9.384919e-02 -2.082248e-01 +1.239415e-01 -5.909515e-03 +1.508299e-02 -3.079998e-05 -2.521788e-03
         -2.082248e-01 +1.239415e-01 +1.592777e-01 +9.384919e-02 -3.079998e-05 -2.521788e-03 -5.909515e-03 +1.508299e-02
         -5.909515e-03 +1.508299e-02 -3.079998e-05 -2.521788e-03 +1.592777e-01 +9.384919e-02 -2.082248e-01 +1.239415e-01
         -3.079998e-05 -2.521788e-03 -5.909515e-03 +1.508299e-02 -2.082248e-01 +1.239415e-01 +1.592777e-01 +9.384919e-02
34.628375 +1.656851e-01 +9.160475e-02 -1.677636e-01 +1.738364e-01 -5.722741e-03 +1.516424e-02 -6.873783e-04 -2.427478e-03
         -1.677636e-01 +1.738364e-01 +1.656851e-01 +9.160475e-02 -6.873783e-04 -2.427478e-03 -5.722741e-03 +1.516424e-02
         -5.722741e-03 +1.516424e-02 -6.873783e-04 -2.427478e-03 +1.656851e-01 +9.160475e-02 -1.677636e-01 +1.738364e-01
         -6.873783e-04 -2.427478e-03 -5.722741e-03 +1.516424e-02 -1.677636e-01 +1.738364e-01 +1.656851e-01 +9.160475e-02
34.728313 +1.719223e-01 +8.892344e-02 -1.157396e-01 +2.112135e-01 -5.534843e-03 +1.524315e-02 -1.296890e-03 -2.165157e-03
         -1.157396e-01 +2.112135e-01 +1.719223e-01 +8.892344e-02 -1.296890e-03 -2.165157e-03 -5.534843e-03 +1.524315e-02
         -5.534843e-03 +1.524315e-02 -1.296890e-03 -2.165157e-03 +1.719223e-01 +8.892344e-02 -1.157396e-01 +2.112135e-01
         -1.296890e-03 -2.165157e-03 -5.534843e-03 +1.524315e-02 -1.157396e-01 +2.112135e-01 +1.719223e-01 +8.892344e-02
34.828250 +1.779595e-01 +8.581806e-02 -5.587898e-02 +2.335070e-01 -5.345853e-03 +1.531968e-02 -1.817124e-03 -1.752853e-03
         -5.587898e-02 +2.335070e-01 +1.779595e-01 +8.581806e-02 -1.817124e-03 -1.752853e-03 -5.345853e-03 +1.531968e-02
         -5.345853e-03 +1.531968e-02 -1.817124e-03 -1.752853e-03 +1.779595e-01 +8.581806e-02 -5.587898e-02 +2.335070e-01
         -1.817124e-03 -1.752853e-03 -5.345853e-03 +1.531968e-02 -5.587898e-02 +2.335070e-01 +1.779595e-01 +8.581806e-02
34.928187 +1.837681e-01 +8.230340e-02 +7.556734e-03 +2.392273e-01 -5.155799e-03 +1.539383e-02 -2.212019e-03 -1.218988e-03
         +7.556734e-03 +2.392273e-01 +1.837681e-01 +8.230340e-02 -2.212019e-03 -1.218988e-03 -5.155799e-03 +1.539383e-02
         -5.155799e-03 +1.539383e-02 -2.212019e-03 -1.218988e-03 +1.837681e-01 +8.230340e-02 +7.556734e-03 +2.392273e-01
         -2.212019e-03 -1.218988e-03 -5.155799e-03 +1.539383e-02 +7.556734e-03 +2.392273e-01 +1.837681e-01 +8.230340e-02
35.028125 +1.893202e-01 +7.839624e-02 +7.007407e-02 +2.280626e-01 -4.964714e-03 +1.546559e-02 -2.454161e-03 -6.004159e-04
         +7.007407e-02 +2.280626e-01 +1.893202e-01 +7.839624e-02 -2.454161e-03 -6.004159e-04 -4.964714e-03 +1.546559e-02
         -4.964714e-03 +1.546559e-02 -2.454161e-03 -6.004159e-04 +1.893202e-01 +7.839624e-02 +7.007407e-02 +2.280626e-01
         -2.454161e-03 -6.004159e-04 -4.964714e-03 +1.546559e-02 +7.007407e-02 +2.280626e-01 +1.893202e-01 +7.839624e-02
35.128062 +1.945894e-01 +7.411521e-02 +1.272667e-01 +2.008959e-01 -4.772627e-03 +1.553494e-02 -2.526688e-03 +6.012052e-05
         +1.272667e-01 +2.008959e-01 +1.945894e-01 +7.411521e-02 -2.526688e-03 +6.012052e-05 -4.772627e-03 +1.553494e-02
         -4.772627e-03 +1.553494e-02 -2.526688e-03 +6.012052e-05 +1.945894e-01 +7.411521e-02 +1.272667e-01 +2.008959e-01
         -2.526688e-03 +6.012052e-05 -4.772627e-03 +1.553494e-02 +1.272667e-01 +2.008959e-01 +1.945894e-01 +7.411521e-02
35.228000 +1.995506e-01 +6.948072e-02 +1.751273e-01 +1.597374e-01 -4.579570e-03 +1.560186e-02 -2.424467e-03 +7.169447e-04
         +1.751273e-01 +1.597374e-01 +1.995506e-01 +6.948072e-02 -2.424467e-03 +7.169447e-04 -4.579570e-03 +1.560186e-02
         -4.579570e-03 +1.560186e-02 -2.424467e-03 +7.169447e-04 +1.995506e-01 +6.948072e-02 +1.751273e-01 +1.597374e-01
         -2.424467e-03 +7.169447e-04 -4.579570e-03 +1.560186e-02 +1.751273e-01 +1.597374e-01 +1.995506e-01 +6.948072e-02
35.327937 +2.041801e-01 +6.451487e-02 +2.103301e-01 +1.075770e-01 -4.385574e-03 +1.566634e-02 -2.154452e-03 +1.324607e-03
         +2.103301e-01 +1.075770e-01 +2.041801e-01 +6.451487e-02 -2.154452e-03 +1.324607e-03 -4.385574e-03 +1.566634e-02
         -4.385574e-03 +1.566634e-02 -2.154452e-03 +1.324607e-03 +2.041801e-01 +6.451487e-02 +2.103301e-01 +1.075770e-01
         -2.154452e-03 +1.324607e-03 -4.385574e-03 +1.566634e-02 +2.103301e-01 +1.075770e-01 +2.041801e-01 +6.451487e-02
35.427875 +2.084558e-01 +5.924135e-02 +2.304636e-01 +4.816753e-02 -4.190670e-03 +1.572837e-02 -1.735218e-03 +1.841028e-03
         +2.304636e-01 +4.816753e-02 +2.084558e-01 +5.924135e-02 -1.735218e-03 +1.841028e-03 -4.190670e-03 +1.572837e-02
         -4.190670e-03 +1.572837e-02 -1.735218e-03 +1.841028e-03 +2.084558e-01 +5.924135e-02 +2.304636e-01 +4.816753e-02
         -1.735218e-03 +1.841028e-03 -4.190670e-03 +1.572837e-02 +2.304636e-01 +4.816753e-02 +2.084558e-01 +5.924135e-02
35.527812 +2.123574e-01 +5.368531e-02 +2.341975e-01 -1.424555e-02 -3.994889e-03 +1.578794e-02 -1.195676e-03 +2.230418e-03
         +2.341975e-01 -1.424555e-02 +2.123574e-01 +5.368531e-02 -1.195676e-03 +2.230418e-03 -3.994889e-03 +1.578794e-02
         -3.994889e-03 +1.578794e-02 -1.195676e-03 +2.230418e-03 +2.123574e-01 +5.368531e-02 +2.341975e-01 -1.424555e-02
         -1.195676e-03 +2.230418e-03 -3.994889e-03 +1.578794e-02 +2.341975e-01 -1.424555e-02 +2.123574e-01 +5.368531e-02
35.627750 +2.158662e-01 +4.787324e-02 +2.213720e-01 -7.522846e-02 -3.798265e-03 +1.584503e-02 -5.730822e-04 +2.465754e-03
         +2.213720e-01 -7.522846e-02 +2.158662e-01 +4.787324e-02 -5.730822e-04 +2.465754e-03 -3.798265e-03 +1.584503e-02
         -3.798265e-03 +1.584503e-02 -5.730822e-04 +2.465754e-03 +2.158662e-01 +4.787324e-02 +2.213720e-01 -7.522846e-02
         -5.730822e-04 +2.465754e-03 -3.798265e-03 +1.584503e-02 +2.213720e-01 -7.522846e-02 +2.158662e-01 +4.787324e-02
35.727688 +2.189655e-01 +4.183286e-02 +1.930026e-01 -1.304754e-01 -3.600827e-03 +1.589964e-02 +8.953778e-05 +2.530658e-03
         +1.930026e-01 -1.304754e-01 +2.189655e-01 +4.183286e-02 +8.953778e-05 +2.530658e-03 -3.600827e-03 +1.589964e-02
         -3.600827e-03 +1.589964e-02 +8.953778e-05 +2.530658e-03 +2.189655e-01 +4.183286e-02 +1.930026e-01 -1.304754e-01
         +8.953778e-05 +2.530658e-03 -3.600827e-03 +1.589964e-02 +1.930026e-01 -1.304754e-01 +2.189655e-01 +4.183286e-02
35.827625 +2.216406e-01 +3.559298e-02 +1.512017e-01 -1.761144e-01 -3.402609e-03 +1.595174e-02 +7.463606e-04 +2.420535e-03
         +1.512017e-01 -1.761144e-01 +2.216406e-01 +3.559298e-02 +7.463606e-04 +2.420535e-03 -3.402609e-03 +1.595174e-02
         -3.402609e-03 +1.595174e-02 +7.463606e-04 +2.420535e-03 +2.216406e-01 +3.559298e-02 +1.512017e-01 -1.761144e-01
         +7.463606e-04 +2.420535e-03 -3.402609e-03 +1.595174e-02 +1.512017e-01 -1.761144e-01 +2.216406e-01 +3.559298e-02
35.927562 +2.238786e-01 +2.918336e-02 +9.902115e-02 -2.089801e-01 -3.203642e-03 +1.600134e-02 +1.351937e-03 +2.142903e-03
         +9.902115e-02 -2.089801e-01 +2.238786e-01 +2.918336e-02 +1.351937e-03 +2.142903e-03 -3.203642e-03 +1.600134e-02
         -3.203642e-03 +1.600134e-02 +1.351937e-03 +2.142903e-03 +2.238786e-01 +2.918336e-02 +9.902115e-02 -2.089801e-01
         +1.351937e-03 +2.142903e-03 -3.203642e-03 +1.600134e-02 +9.902115e-02 -2.089801e-01 +2.238786e-01 +2.918336e-02
36.027500 +2.256689e-01 +2.263456e-02 +4.022988e-02 -2.268356e-01 -3.003960e-03 +1.604842e-02 +1.864339e-03 +1.716872e-03
         +4.022988e-02 -2.268356e-01 +2.256689e-01 +2.263456e-02 +1.864339e-03 +1.716872e-03 -3.003960e-03 +1.604842e-02
         -3.003960e-03 +1.604842e-02 +1.864339e-03 +1.716872e-03 +2.256689e-01 +2.263456e-02 +4.022988e-02 -2.268356e-01
         +1.864339e-03 +1.716872e-03 -3.003960e-03 +1.604842e-02 +4.022988e-02 -2.268356e-01 +2.256689e-01 +2.263456e-02
36.127437 +2.270029e-01 +1.597781e-02 -2.095984e-02 -2.285252e-01 -2.803593e-03 +1.609297e-02 +2.248061e-03 +1.171835e-03
         -2.095984e-02 -2.285252e-01 +2.270029e-01 +1.597781e-02 +2.248061e-03 +1.171835e-03 -2.803593e-03 +1.609297e-02
         -2.803593e-03 +1.609297e-02 +2.248061e-03 +1.171835e-03 +2.270029e-01 +1.597781e-02 -2.095984e-02 -2.285252e-01
         +2.248061e-03 +1.171835e-03 -2.803593e-03 +1.609297e-02 -2.095984e-02 -2.285252e-01 +2.270029e-01 +1.597781e-02
36.227375 +2.278744e-01 +9.244870e-03 -8.019532e-02 -2.140500e-01 -2.602575e-03 +1.613497e-02 +2.476481e-03 +5.454368e-04
         -8.019532e-02 -2.140500e-01 +2.278744e-01 +9.244870e-03 +2.476481e-03 +5.454368e-04 -2.602575e-03 +1.613497e-02
         -2.602575e-03 +1.613497e-02 +2.476481e-03 +5.454368e-04 +2.278744e-01 +9.244870e-03 -8.019532e-02 -2.140500e-01
         +2.476481e-03 +5.454368e-04 -2.602575e-03 +1.613497e-02 -8.019532e-02 -2.140500e-01 +2.278744e-01 +9.244870e-03
36.327312 +2.282790e-01 +2.467838e-03 -1.332949e-01 -1.845593e-01 -2.400938e-03 +1.617443e-02 +2.533713e-03 -1.190282e-04
         -1.332949e-01 -1.845593e-01 +2.282790e-01 +2.467838e-03 +2.533713e-03 -1.190282e-04 -2.400938e-03 +1.617443e-02
         -2.400938e-03 +1.617443e-02 +2.533713e-03 -1.190282e-04 +2.282790e-01 +2.467838e-03 -1.332949e-01 -1.845593e-01
         +2.533713e-03 -1.190282e-04 -2.400938e-03 +1.617443e-02 -1.332949e-01 -1.845593e-01 +2.282790e-01 +2.467838e-03
36.427250 +2.282150e-01 -4.320963e-03 -1.765447e-01 -1.422610e-01 -2.198716e-03 +1.621134e-02 +2.415706e-03 -7.756076e-04
         -1.765447e-01 -1.422610e-01 +2.282150e-01 -4.320963e-03 +2.415706e-03 -7.756076e-04 -2.198716e-03 +1.621134e-02
         -2.198716e-03 +1.621134e-02 +2.415706e-03 -7.756076e-04 +2.282150e-01 -4.320963e-03 -1.765447e-01 -1.422610e-01
         +2.415706e-03 -7.756076e-04 -2.198716e-03 +1.621134e-02 -1.765447e-01 -1.422610e-01 +2.282150e-01 -4.320963e-03
36.527187 +2.276826e-01 -1.108916e-02 -2.069600e-01 -9.025519e-02 -1.995941e-03 +1.624567e-02 +2.130533e-03 -1.378871e-03
         -2.069600e-01 -9.025519e-02 +2.276826e-01 -1.108916e-02 +2.130533e-03 -1.378871e-03 -1.995941e-03 +1.624567e-02
         -1.995941e-03 +1.624567e-02 +2.130533e-03 -1.378871e-03 +2.276826e-01 -1.108916e-02 -2.069600e-01 -9.025519e-02
         +2.130533e-03 -1.378871e-03 -1.995941e-03 +1.624567e-02 -2.069600e-01 -9.025519e-02 +2.276826e-01 -1.108916e-02
36.627125 +2.266843e-01 -1.780447e-02 -2.224923e-01 -3.230675e-02 -1.792646e-03 +1.627744e-02 +1.697841e-03 -1.887054e-03
         -2.224923e-01 -3.230675e-02 +2.266843e-01 -1.780447e-02 +1.697841e-03 -1.887054e-03 -1.792646e-03 +1.627744e-02
         -1.792646e-03 +1.627744e-02 +1.697841e-03 -1.887054e-03 +2.266843e-01 -1.780447e-02 -2.224923e-01 -3.230675e-02
         +1.697841e-03 -1.887054e-03 -1.792646e-03 +1.627744e-02 -2.224923e-01 -3.230675e-02 +2.266843e-01 -1.780447e-02
36.727063 +2.252250e-01 -2.443487e-02 -2.221675e-01 +2.742887e-02 -1.588865e-03 +1.630662e-02 +1.147492e-03 -2.264950e-03
         -2.221675e-01 +2.742887e-02 +2.252250e-01 -2.443487e-02 +1.147492e-03 -2.264950e-03 -1.588865e-03 +1.630662e-02
         -1.588865e-03 +1.630662e-02 +1.147492e-03 -2.264950e-03 +2.252250e-01 -2.443487e-02 -2.221675e-01 +2.742887e-02
         +1.147492e-03 -2.264950e-03 -1.588865e-03 +1.630662e-02 -2.221675e-01 +2.742887e-02 +2.252250e-01 -2.443487e-02
36.827000 +2.233115e-01 -3.094874e-02 -2.061463e-01 +8.470511e-02 -1.384630e-03 +1.633322e-02 +5.175062e-04 -2.486353e-03
         -2.061463e-01 +8.470511e-02 +2.233115e-01 -3.094874e-02 +5.175062e-04 -2.486353e-03 -1.384630e-03 +1.633322e-02
         -1.384630e-03 +1.633322e-02 +5.175062e-04 -2.486353e-03 +2.233115e-01 -3.094874e-02 -2.061463e-01 +8.470511e-02
         +5.175062e-04 -2.486353e-03 -1.384630e-03 +1.633322e-02 -2.061463e-01 +8.470511e-02 +2.233115e-01 -3.094874e-02
36.926937 +2.209530e-01 -3.731501e-02 -1.757029e-01 +1.354878e-01 -1.179975e-03 +1.635722e-02 -1.485688e-04 -2.535871e-03
         -1.757029e-01 +1.354878e-01 +2.209530e-01 -3.731501e-02 -1.485688e-04 -2.535871e-03 -1.179975e-03 +1.635722e-02
         -1.179975e-03 +1.635722e-02 -1.485688e-04 -2.535871e-03 +2.209530e-01 -3.731501e-02 -1.757029e-01 +1.354878e-01
         -1.485688e-04 -2.535871e-03 -1.179975e-03 +1.635722e-02 -1.757029e-01 +1.354878e-01 +2.209530e-01 -3.731501e-02
37.026875 +2.181607e-01 -4.350333e-02 -1.331234e-01 +1.762404e-01 -9.749338e-04 +1.637862e-02 -8.046679e-04 -2.410000e-03
         -1.331234e-01 +1.762404e-01 +2.181607e-01 -4.350333e-02 -8.046679e-04 -2.410000e-03 -9.749338e-04 +1.637862e-02
         -9.749338e-04 +1.637862e-02 -8.046679e-04 -2.410000e-03 +2.181607e-01 -4.350333e-02 -1.331234e-01 +1.762404e-01
         -8.046679e-04 -2.410000e-03 -9.749338e-04 +1.637862e-02 -1.331234e-01 +1.762404e-01 +2.181607e-01 -4.350333e-02
37.126812 +2.149481e-01 -4.948418e-02 -8.153420e-02 +2.041716e-01 -7.695392e-04 +1.639741e-02 -1.405395e-03 -2.117370e-03
         -8.153420e-02 +2.041716e-01 +2.149481e-01 -4.948418e-02 -1.405395e-03 -2.117370e-03 -7.695392e-04 +1.639741e-02
         -7.695392e-04 +1.639741e-02 -1.405395e-03 -2.117370e-03 +2.149481e-01 -4.948418e-02 -8.153420e-02 +2.041716e-01
         -1.405395e-03 -2.117370e-03 -7.695392e-04 +1.639741e-02 -8.153420e-02 +2.041716e-01 +2.149481e-01 -4.948418e-02
37.226750 +2.113302e-01 -5.522904e-02 -2.467081e-02 +2.174262e-01 -5.638251e-04 +1.641359e-02 -1.909167e-03 -1.678153e-03
         -2.467081e-02 +2.174262e-01 +2.113302e-01 -5.522904e-02 -1.909167e-03 -1.678153e-03 -5.638251e-04 +1.641359e-02
         -5.638251e-04 +1.641359e-02 -1.909167e-03 -1.678153e-03 +2.113302e-01 -5.522904e-02 -2.467081e-02 +2.174262e-01
         -1.909167e-03 -1.678153e-03 -5.638251e-04 +1.641359e-02 -2.467081e-02 +2.174262e-01 +2.113302e-01 -5.522904e-02
37.326687 +2.073246e-01 -6.071051e-02 +3.339385e-02 +2.152082e-01 -3.578252e-04 +1.642716e-02 -2.281090e-03 -1.122675e-03
         +3.339385e-02 +2.152082e-01 +2.073246e-01 -6.071051e-02 -2.281090e-03 -1.122675e-03 -3.578252e-04 +1.642716e-02
         -3.578252e-04 +1.642716e-02 -2.281090e-03 -1.122675e-03 +2.073246e-01 -6.071051e-02 +3.339385e-02 +2.152082e-01
         -2.281090e-03 -1.122675e-03 -3.578252e-04 +1.642716e-02 +3.339385e-02 +2.152082e-01 +2.073246e-01 -6.071051e-02
37.426625 +2.029501e-01 -6.590245e-02 +8.854256e-02 +1.978262e-01 -1.515731e-04 +1.643810e-02 -2.495379e-03 -4.893161e-04
         +8.854256e-02 +1.978262e-01 +2.029501e-01 -6.590245e-02 -2.495379e-03 -4.893161e-04 -1.515731e-04 +1.643810e-02
         -1.515731e-04 +1.643810e-02 -2.495379e-03 -4.893161e-04 +2.029501e-01 -6.590245e-02 +8.854256e-02 +1.978262e-01
         -2.495379e-03 -4.893161e-04 -1.515731e-04 +1.643810e-02 +8.854256e-02 +1.978262e-01 +2.029501e-01 -6.590245e-02
37.526562 +1.982278e-01 -7.078010e-02 +1.369068e-01 +1.666599e-01 +5.489742e-05 +1.644642e-02 -2.537148e-03 +1.781378e-04
         +1.369068e-01 +1.666599e-01 +1.982278e-01 -7.078010e-02 -2.537148e-03 +1.781378e-04 +5.489742e-05 +1.644642e-02
         +5.489742e-05 +1.644642e-02 -2.537148e-03 +1.781378e-04 +1.982278e-01 -7.078010e-02 +1.369068e-01 +1.666599e-01
         -2.537148e-03 +1.781378e-04 +5.489742e-05 +1.644642e-02 +1.369068e-01 +1.666599e-01 +1.982278e-01 -7.078010e-02
37.626500 +1.931801e-01 -7.532020e-02 +1.751387e-01 +1.240507e-01 +2.615524e-04 +1.645212e-02 -2.403439e-03 +8.335246e-04
         +1.751387e-01 +1.240507e-01 +1.931801e-01 -7.532020e-02 -2.403439e-03 +8.335246e-04 +2.615524e-04 +1.645212e-02
         +2.615524e-04 +1.645212e-02 -2.403439e-03 +8.335246e-04 +1.931801e-01 -7.532020e-02 +1.751387e-01 +1.240507e-01
         -2.403439e-03 +8.335246e-04 +2.615524e-04 +1.645212e-02 +1.751387e-01 +1.240507e-01 +1.931801e-01 -7.532020e-02
37.726437 +1.878311e-01 -7.950109e-02 +2.006429e-01 +7.312488e-02 +4.683581e-04 +1.645518e-02 -2.103437e-03 +1.431500e-03
         +2.006429e-01 +7.312488e-02 +1.878311e-01 -7.950109e-02 -2.103437e-03 +1.431500e-03 +4.683581e-04 +1.645518e-02
         +4.683581e-04 +1.645518e-02 -2.103437e-03 +1.431500e-03 +1.878311e-01 -7.950109e-02 +2.006429e-01 +7.312488e-02
         -2.103437e-03 +1.431500e-03 +4.683581e-04 +1.645518e-02 +2.006429e-01 +7.312488e-02 +1.878311e-01 -7.950109e-02
37.826375 +1.822063e-01 -8.330284e-02 +2.117523e-01 +1.756302e-02 +6.752805e-04 +1.645560e-02 -1.657836e-03 +1.930675e-03
         +2.117523e-01 +1.756302e-02 +1.822063e-01 -8.330284e-02 -1.657836e-03 +1.930675e-03 +6.752805e-04 +1.645560e-02
         +6.752805e-04 +1.645560e-02 -1.657836e-03 +1.930675e-03 +1.822063e-01 -8.330284e-02 +2.117523e-01 +1.756302e-02
         -1.657836e-03 +1.930675e-03 +6.752805e-04 +1.645560e-02 +2.117523e-01 +1.756302e-02 +1.822063e-01 -8.330284e-02
37.926312 +1.763325e-01 -8.670732e-02 +2.078350e-01 -3.866685e-02 +8.822857e-04 +1.645340e-02 -1.097411e-03 +2.296482e-03
         +2.078350e-01 -3.866685e-02 +1.763325e-01 -8.670732e-02 -1.097411e-03 +2.296482e-03 +8.822857e-04 +1.645340e-02
         +8.822857e-04 +1.645340e-02 -1.097411e-03 +2.296482e-03 +1.763325e-01 -8.670732e-02 +2.078350e-01 -3.866685e-02
         -1.097411e-03 +2.296482e-03 +8.822857e-04 +1.645340e-02 +2.078350e-01 -3.866685e-02 +1.763325e-01 -8.670732e-02
38.026250 +1.702377e-01 -8.969829e-02 +1.893275e-01 -9.159359e-02 +1.089340e-03 +1.644855e-02 -4.608914e-04 +2.503570e-03
         +1.893275e-01 -9.159359e-02 +1.702377e-01 -8.969829e-02 -4.608914e-04 +2.503570e-03 +1.089340e-03 +1.644855e-02
         +1.089340e-03 +1.644855e-02 -4.608914e-04 +2.503570e-03 +1.702377e-01 -8.969829e-02 +1.893275e-01 -9.159359e-02
         -4.608914e-04 +2.503570e-03 +1.089340e-03 +1.644855e-02 +1.893275e-01 -9.159359e-02 +1.702377e-01 -8.969829e-02
38.126188 +1.639511e-01 -9.226149e-02 +1.576912e-01 -1.375237e-01 +1.296408e-03 +1.644106e-02 +2.077136e-04 +2.537560e-03
         +1.576912e-01 -1.375237e-01 +1.639511e-01 -9.226149e-02 +2.077136e-04 +2.537560e-03 +1.296408e-03 +1.644106e-02
         +1.296408e-03 +1.644106e-02 +2.077136e-04 +2.537560e-03 +1.639511e-01 -9.226149e-02 +1.576912e-01 -1.375237e-01
         +2.077136e-04 +2.537560e-03 +1.296408e-03 +1.644106e-02 +1.576912e-01 -1.375237e-01 +1.639511e-01 -9.226149e-02
38.226125 +1.575025e-01 -9.438469e-02 +1.152965e-01 -1.732991e-01 +1.503458e-03 +1.643094e-02 +8.621615e-04 +2.396045e-03
         +1.152965e-01 -1.732991e-01 +1.575025e-01 -9.438469e-02 +8.621615e-04 +2.396045e-03 +1.503458e-03 +1.643094e-02
         +1.503458e-03 +1.643094e-02 +8.621615e-04 +2.396045e-03 +1.575025e-01 -9.438469e-02 +1.152965e-01 -1.732991e-01
         +8.621615e-04 +2.396045e-03 +1.503458e-03 +1.643094e-02 +1.152965e-01 -1.732991e-01 +1.575025e-01 -9.438469e-02
38.326062 +1.509228e-01 -9.605776e-02 +6.524479e-02 -1.965135e-01 +1.710454e-03 +1.641817e-02 +1.457175e-03 +2.088761e-03
         +6.524479e-02 -1.965135e-01 +1.509228e-01 -9.605776e-02 +1.457175e-03 +2.088761e-03 +1.710454e-03 +1.641817e-02
         +1.710454e-03 +1.641817e-02 +1.457175e-03 +2.088761e-03 +1.509228e-01 -9.605776e-02 +6.524479e-02 -1.965135e-01
         +1.457175e-03 +2.088761e-03 +1.710454e-03 +1.641817e-02 +6.524479e-02 -1.965135e-01 +1.509228e-01 -9.605776e-02
38.426000 +1.442433e-01 -9.727274e-02 +1.114094e-02 -2.056726e-01 +1.917362e-03 +1.640276e-02 +1.951575e-03 +1.636916e-03
         +1.114094e-02 -2.056726e-01 +1.442433e-01 -9.727274e-02 +1.951575e-03 +1.636916e-03 +1.917362e-03 +1.640276e-02
         +1.917362e-03 +1.640276e-02 +1.951575e-03 +1.636916e-03 +1.442433e-01 -9.727274e-02 +1.114094e-02 -2.056726e-01
         +1.951575e-03 +1.636916e-03 +1.917362e-03 +1.640276e-02 +1.114094e-02 -2.056726e-01 +1.442433e-01 -9.727274e-02
38.525937 +1.374958e-01 -9.802382e-02 -4.316708e-02 -2.002888e-01 +2.124150e-03 +1.638471e-02 +2.311132e-03 +1.071726e-03
         -4.316708e-02 -2.002888e-01 +1.374958e-01 -9.802382e-02 +2.311132e-03 +1.071726e-03 +2.124150e-03 +1.638471e-02
         +2.124150e-03 +1.638471e-02 +2.311132e-03 +1.071726e-03 +1.374958e-01 -9.802382e-02 -4.316708e-02 -2.002888e-01
         +2.311132e-03 +1.071726e-03 +2.124150e-03 +1.638471e-02 -4.316708e-02 -2.002888e-01 +1.374958e-01 -9.802382e-02
38.625875 +1.307127e-01 -9.830742e-02 -9.386194e-02 -1.809024e-01 +2.330781e-03 +1.636402e-02 +2.510936e-03 +4.322563e-04
         -9.386194e-02 -1.809024e-01 +1.307127e-01 -9.830742e-02 +2.510936e-03 +4.322563e-04 +2.330781e-03 +1.636402e-02
         +2.330781e-03 +1.636402e-02 +2.510936e-03 +4.322563e-04 +1.307127e-01 -9.830742e-02 -9.386194e-02 -1.809024e-01
         +2.510936e-03 +4.322563e-04 +2.330781e-03 +1.636402e-02 -9.386194e-02 -1.809024e-01 +1.307127e-01 -9.830742e-02
38.725812 +1.239261e-01 -9.812219e-02 -1.374249e-01 -1.490311e-01 +2.537223e-03 +1.634070e-02 +2.537123e-03 -2.372757e-04
         -1.374249e-01 -1.490311e-01 +1.239261e-01 -9.812219e-02 +2.537123e-03 -2.372757e-04 +2.537223e-03 +1.634070e-02
         +2.537223e-03 +1.634070e-02 +2.537123e-03 -2.372757e-04 +1.239261e-01 -9.812219e-02 -1.374249e-01 -1.490311e-01
         +2.537123e-03 -2.372757e-04 +2.537223e-03 +1.634070e-02 -1.374249e-01 -1.490311e-01 +1.239261e-01 -9.812219e-02
38.825750 +1.171685e-01 -9.746901e-02 -1.708794e-01 -1.070514e-01 +2.743442e-03 +1.631474e-02 +2.387838e-03 -8.905630e-04
         -1.708794e-01 -1.070514e-01 +1.171685e-01 -9.746901e-02 +2.387838e-03 -8.905630e-04 +2.743442e-03 +1.631474e-02
         +2.743442e-03 +1.631474e-02 +2.387838e-03 -8.905630e-04 +1.171685e-01 -9.746901e-02 -1.708794e-01 -1.070514e-01
         +2.387838e-03 -8.905630e-04 +2.743442e-03 +1.631474e-02 -1.708794e-01 -1.070514e-01 +1.171685e-01 -9.746901e-02
38.925688 +1.104721e-01 -9.635100e-02 -1.919931e-01 -5.802057e-02 +2.949403e-03 +1.628614e-02 +2.073364e-03 -1.482411e-03
         -1.919931e-01 -5.802057e-02 +1.104721e-01 -9.635100e-02 +2.073364e-03 -1.482411e-03 +2.949403e-03 +1.628614e-02
         +2.949403e-03 +1.628614e-02 +2.073364e-03 -1.482411e-03 +1.104721e-01 -9.635100e-02 -1.919931e-01 -5.802057e-02
         +2.073364e-03 -1.482411e-03 +2.949403e-03 +1.628614e-02 -1.919931e-01 -5.802057e-02 +1.104721e-01 -9.635100e-02
39.025625 +1.038688e-01 -9.477350e-02 -1.994248e-01 -5.454253e-03 +3.155072e-03 +1.625491e-02 +1.615418e-03 -1.971864e-03
         -1.994248e-01 -5.454253e-03 +1.038688e-01 -9.477350e-02 +1.615418e-03 -1.971864e-03 +3.155072e-03 +1.625491e-02
         +3.155072e-03 +1.625491e-02 +1.615418e-03 -1.971864e-03 +1.038688e-01 -9.477350e-02 -1.994248e-01 -5.454253e-03
         +1.615418e-03 -1.971864e-03 +3.155072e-03 +1.625491e-02 -1.994248e-01 -5.454253e-03 +1.038688e-01 -9.477350e-02
39.125563 +9.739011e-02 -9.274401e-02 -1.928077e-01 +4.692575e-02 +3.360416e-03 +1.622106e-02 +1.045645e-03 -2.325043e-03
         -1.928077e-01 +4.692575e-02 +9.739011e-02 -9.274401e-02 +1.045645e-03 -2.325043e-03 +3.360416e-03 +1.622106e-02
         +3.360416e-03 +1.622106e-02 +1.045645e-03 -2.325043e-03 +9.739011e-02 -9.274401e-02 -1.928077e-01 +4.692575e-02
         +1.045645e-03 -2.325043e-03 +3.360416e-03 +1.622106e-02 -1.928077e-01 +4.692575e-02 +9.739011e-02 -9.274401e-02
39.225500 +9.106697e-02 -9.027223e-02 -1.727628e-01 +9.545447e-02 +3.565400e-03 +1.618458e-02 +4.034344e-04 -2.517487e-03
         -1.727628e-01 +9.545447e-02 +9.106697e-02 -9.027223e-02 +4.034344e-04 -2.517487e-03 +3.565400e-03 +1.618458e-02
         +3.565400e-03 +1.618458e-02 +4.034344e-04 -2.517487e-03 +9.106697e-02 -9.027223e-02 -1.727628e-01 +9.545447e-02
         +4.034344e-04 -2.517487e-03 +3.565400e-03 +1.618458e-02 -1.727628e-01 +9.545447e-02 +9.106697e-02 -9.027223e-02
39.325437 +8.492949e-02 -8.736993e-02 -1.408429e-01 +1.367793e-01 +3.769991e-03 +1.614548e-02 -2.668042e-04 -2.535854e-03
         -1.408429e-01 +1.367793e-01 +8.492949e-02 -8.736993e-02 -2.668042e-04 -2.535854e-03 +3.769991e-03 +1.614548e-02
         +3.769991e-03 +1.614548e-02 -2.668042e-04 -2.535854e-03 +8.492949e-02 -8.736993e-02 -1.408429e-01 +1.367793e-01
         -2.668042e-04 -2.535854e-03 +3.769991e-03 +1.614548e-02 -1.408429e-01 +1.367793e-01 +8.492949e-02 -8.736993e-02
39.425375 +7.900696e-02 -8.405097e-02 -9.941277e-02 +1.680904e-01 +3.974154e-03 +1.610376e-02 -9.187142e-04 -2.378839e-03
         -9.941277e-02 +1.680904e-01 +7.900696e-02 -8.405097e-02 -9.187142e-04 -2.378839e-03 +3.974154e-03 +1.610376e-02
         +3.974154e-03 +1.610376e-02 -9.187142e-04 -2.378839e-03 +7.900696e-02 -8.405097e-02 -9.941277e-02 +1.680904e-01
         -9.187142e-04 -2.378839e-03 +3.974154e-03 +1.610376e-02 -9.941277e-02 +1.680904e-01 +7.900696e-02 -8.405097e-02
39.525312 +7.332761e-02 -8.033117e-02 -5.147440e-02 +1.873101e-01 +4.177857e-03 +1.605943e-02 -1.507198e-03 -2.057272e-03
         -5.147440e-02 +1.873101e-01 +7.332761e-02 -8.033117e-02 -1.507198e-03 -2.057272e-03 +4.177857e-03 +1.605943e-02
         +4.177857e-03 +1.605943e-02 -1.507198e-03 -2.057272e-03 +7.332761e-02 -8.033117e-02 -5.147440e-02 +1.873101e-01
         -1.507198e-03 -2.057272e-03 +4.177857e-03 +1.605943e-02 -5.147440e-02 +1.873101e-01 +7.332761e-02 -8.033117e-02
39.625250 +6.791853e-02 -7.622826e-02 -4.493707e-04 +1.932292e-01 +4.381065e-03 +1.601250e-02 -1.991539e-03 -1.593368e-03
         -4.493707e-04 +1.932292e-01 +6.791853e-02 -7.622826e-02 -1.991539e-03 -1.593368e-03 +4.381065e-03 +1.601250e-02
         +4.381065e-03 +1.601250e-02 -1.991539e-03 -1.593368e-03 +6.791853e-02 -7.622826e-02 -4.493707e-04 +1.932292e-01
         -1.991539e-03 -1.593368e-03 +4.381065e-03 +1.601250e-02 -4.493707e-04 +1.932292e-01 +6.791853e-02 -7.622826e-02
39.725187 +6.280553e-02 -7.176182e-02 +5.006447e-02 +1.855801e-01 +4.583744e-03 +1.596296e-02 -2.338219e-03 -1.019194e-03
         +5.006447e-02 +1.855801e-01 +6.280553e-02 -7.176182e-02 -2.338219e-03 -1.019194e-03 +4.583744e-03 +1.596296e-02
         +4.583744e-03 +1.596296e-02 -2.338219e-03 -1.019194e-03 +6.280553e-02 -7.176182e-02 +5.006447e-02 +1.855801e-01
         -2.338219e-03 -1.019194e-03 +4.583744e-03 +1.596296e-02 +5.006447e-02 +1.855801e-01 +6.280553e-02 -7.176182e-02
39.825125 +5.801297e-02 -6.695315e-02 +9.654579e-02 +1.650451e-01 +4.785862e-03 +1.591083e-02 -2.523235e-03 -3.744486e-04
         +9.654579e-02 +1.650451e-01 +5.801297e-02 -6.695315e-02 -2.523235e-03 -3.744486e-04 +4.785862e-03 +1.591083e-02
         +4.785862e-03 +1.591083e-02 -2.523235e-03 -3.744486e-04 +5.801297e-02 -6.695315e-02 +9.654579e-02 +1.650451e-01
         -2.523235e-03 -3.744486e-04 +4.785862e-03 +1.591083e-02 +9.654579e-02 +1.650451e-01 +5.801297e-02 -6.695315e-02
39.925063 +5.356373e-02 -6.182517e-02 +1.357940e-01 +1.331970e-01 +4.987384e-03 +1.585612e-02 -2.533769e-03 +2.962799e-04
         +1.357940e-01 +1.331970e-01 +5.356373e-02 -6.182517e-02 -2.533769e-03 +2.962799e-04 +4.987384e-03 +1.585612e-02
         +4.987384e-03 +1.585612e-02 -2.533769e-03 +2.962799e-04 +5.356373e-02 -6.182517e-02 +1.357940e-01 +1.331970e-01
         -2.533769e-03 +2.962799e-04 +4.987384e-03 +1.585612e-02 +1.357940e-01 +1.331970e-01 +5.356373e-02 -6.182517e-02
40.025000 +4.947901e-02 -5.640235e-02 +1.651482e-01 +9.237940e-02 +5.188277e-03 +1.579882e-02 -2.369069e-03 +9.466008e-04
         +1.651482e-01 +9.237940e-02 +4.947901e-02 -5.640235e-02 -2.369069e-03 +9.466008e-04 +5.188277e-03 +1.579882e-02
         +5.188277e-03 +1.579882e-02 -2.369069e-03 +9.466008e-04 +4.947901e-02 -5.640235e-02 +1.651482e-01 +9.237940e-02
         -2.369069e-03 +9.466008e-04 +5.188277e-03 +1.579882e-02 +1.651482e-01 +9.237940e-02 +4.947901e-02 -5.640235e-02
40.124938 +4.577829e-02 -5.071055e-02 +1.826661e-01 +4.553516e-02 +5.388508e-03 +1.573895e-02 -2.040506e-03 +1.531529e-03
         +1.826661e-01 +4.553516e-02 +4.577829e-02 -5.071055e-02 -2.040506e-03 +1.531529e-03 +5.388508e-03 +1.573895e-02
         +5.388508e-03 +1.573895e-02 -2.040506e-03 +1.531529e-03 +4.577829e-02 -5.071055e-02 +1.826661e-01 +4.553516e-02
         -2.040506e-03 +1.531529e-03 +5.388508e-03 +1.573895e-02 +1.826661e-01 +4.553516e-02 +4.577829e-02 -5.071055e-02
40.224875 +4.247923e-02 -4.477691e-02 +1.872508e-01 -4.005274e-03 +5.588044e-03 +1.567651e-02 -1.570790e-03 +2.010600e-03
         +1.872508e-01 -4.005274e-03 +4.247923e-02 -4.477691e-02 -1.570790e-03 +2.010600e-03 +5.588044e-03 +1.567651e-02
         +5.588044e-03 +1.567651e-02 -1.570790e-03 +2.010600e-03 +4.247923e-02 -4.477691e-02 +1.872508e-01 -4.005274e-03
         -1.570790e-03 +2.010600e-03 +5.588044e-03 +1.567651e-02 +1.872508e-01 -4.005274e-03 +4.247923e-02 -4.477691e-02
40.324813 +3.959756e-02 -3.862972e-02 +1.787175e-01 -5.275946e-02 +5.786851e-03 +1.561152e-02 -9.923962e-04 +2.350664e-03
         +1.787175e-01 -5.275946e-02 +3.959756e-02 -3.862972e-02 -9.923962e-04 +2.350664e-03 +5.786851e-03 +1.561152e-02
         +5.786851e-03 +1.561152e-02 -9.923962e-04 +2.350664e-03 +3.959756e-02 -3.862972e-02 +1.787175e-01 -5.275946e-02
         -9.923962e-04 +2.350664e-03 +5.786851e-03 +1.561152e-02 +1.787175e-01 -5.275946e-02 +3.959756e-02 -3.862972e-02
40.424750 +3.714702e-02 -3.229831e-02 +1.577966e-01 -9.733653e-02 +5.984896e-03 +1.554398e-02 -3.453210e-04 +2.528189e-03
         +1.577966e-01 -9.733653e-02 +3.714702e-02 -3.229831e-02 -3.453210e-04 +2.528189e-03 +5.984896e-03 +1.554398e-02
         +5.984896e-03 +1.554398e-02 -3.453210e-04 +2.528189e-03 +3.714702e-02 -3.229831e-02 +1.577966e-01 -9.733653e-02
         -3.453210e-04 +2.528189e-03 +5.984896e-03 +1.554398e-02 +1.577966e-01 -9.733653e-02 +3.714702e-02 -3.229831e-02
40.524687 +3.513930e-02 -2.581286e-02 +1.260728e-01 -1.346717e-01 +6.182147e-03 +1.547389e-02 +3.256841e-04 +2.530883e-03
         +1.260728e-01 -1.346717e-01 +3.513930e-02 -2.581286e-02 +3.256841e-04 +2.530883e-03 +6.182147e-03 +1.547389e-02
         +6.182147e-03 +1.547389e-02 +3.256841e-04 +2.530883e-03 +3.513930e-02 -2.581286e-02 +1.260728e-01 -1.346717e-01
         +3.256841e-04 +2.530883e-03 +6.182147e-03 +1.547389e-02 +1.260728e-01 -1.346717e-01 +3.513930e-02 -2.581286e-02
40.624625 +3.358397e-02 -1.920432e-02 +8.586649e-02 -1.622357e-01 +6.378570e-03 +1.540128e-02 +9.742090e-04 +2.358548e-03
         +8.586649e-02 -1.622357e-01 +3.358397e-02 -1.920432e-02 +9.742090e-04 +2.358548e-03 +6.378570e-03 +1.540128e-02
         +6.378570e-03 +1.540128e-02 +9.742090e-04 +2.358548e-03 +3.358397e-02 -1.920432e-02 +8.586649e-02 -1.622357e-01
         +9.742090e-04 +2.358548e-03 +6.378570e-03 +1.540128e-02 +8.586649e-02 -1.622357e-01 +3.358397e-02 -1.920432e-02
40.724562 +3.248846e-02 -1.250419e-02 +4.006461e-02 -1.782044e-01 +6.574134e-03 +1.532615e-02 +1.555396e-03 +2.023091e-03
         +4.006461e-02 -1.782044e-01 +3.248846e-02 -1.250419e-02 +1.555396e-03 +2.023091e-03 +6.574134e-03 +1.532615e-02
         +6.574134e-03 +1.532615e-02 +1.555396e-03 +2.023091e-03 +3.248846e-02 -1.250419e-02 +4.006461e-02 -1.782044e-01
         +1.555396e-03 +2.023091e-03 +6.574134e-03 +1.532615e-02 +4.006461e-02 -1.782044e-01 +3.248846e-02 -1.250419e-02
40.824500 +3.185797e-02 -5.744424e-03 -8.085195e-03 -1.815791e-01 +6.768805e-03 +1.524851e-02 +2.029043e-03 +1.547710e-03
         -8.085195e-03 -1.815791e-01 +3.185797e-02 -5.744424e-03 +2.029043e-03 +1.547710e-03 +6.768805e-03 +1.524851e-02
         +6.768805e-03 +1.524851e-02 +2.029043e-03 +1.547710e-03 +3.185797e-02 -5.744424e-03 -8.085195e-03 -1.815791e-01
         +2.029043e-03 +1.547710e-03 +6.768805e-03 +1.524851e-02 -8.085195e-03 -1.815791e-01 +3.185797e-02 -5.744424e-03
40.924438 +3.169553e-02 +1.042735e-03 -5.520369e-02 -1.722468e-01 +6.962550e-03 +1.516838e-02 +2.362385e-03 +9.652763e-04
         -5.520369e-02 -1.722468e-01 +3.169553e-02 +1.042735e-03 +2.362385e-03 +9.652763e-04 +6.962550e-03 +1.516838e-02
         +6.962550e-03 +1.516838e-02 +2.362385e-03 +9.652763e-04 +3.169553e-02 +1.042735e-03 -5.520369e-02 -1.722468e-01
         +2.362385e-03 +9.652763e-04 +6.962550e-03 +1.516838e-02 -5.520369e-02 -1.722468e-01 +3.169553e-02 +1.042735e-03
41.024375 +3.200190e-02 +7.824922e-03 -9.801590e-02 -1.509800e-01 +7.155339e-03 +1.508575e-02 +2.532362e-03 +3.160732e-04
         -9.801590e-02 -1.509800e-01 +3.200190e-02 +7.824922e-03 +2.532362e-03 +3.160732e-04 +7.155339e-03 +1.508575e-02
         +7.155339e-03 +1.508575e-02 +2.532362e-03 +3.160732e-04 +3.200190e-02 +7.824922e-03 -9.801590e-02 -1.509800e-01
         +2.532362e-03 +3.160732e-04 +7.155339e-03 +1.508575e-02 -9.801590e-02 -1.509800e-01 +3.200190e-02 +7.824922e-03
41.124313 +3.277563e-02 +1.456979e-02 -1.335775e-01 -1.193745e-01 +7.347138e-03 +1.500065e-02 +2.527214e-03 -3.549991e-04
         -1.335775e-01 -1.193745e-01 +3.277563e-02 +1.456979e-02 +2.527214e-03 -3.549991e-04 +7.347138e-03 +1.500065e-02
         +7.347138e-03 +1.500065e-02 +2.527214e-03 -3.549991e-04 +3.277563e-02 +1.456979e-02 -1.335775e-01 -1.193745e-01
         +2.527214e-03 -3.549991e-04 +7.347138e-03 +1.500065e-02 -1.335775e-01 -1.193745e-01 +3.277563e-02 +1.456979e-02
41.224250 +3.401303e-02 +2.124518e-02 -1.594761e-01 -7.973093e-02 +7.537916e-03 +1.491309e-02 +2.347295e-03 -1.001526e-03
         -1.594761e-01 -7.973093e-02 +3.401303e-02 +2.124518e-02 +2.347295e-03 -1.001526e-03 +7.537916e-03 +1.491309e-02
         +7.537916e-03 +1.491309e-02 +2.347295e-03 -1.001526e-03 +3.401303e-02 +2.124518e-02 -1.594761e-01 -7.973093e-02
         +2.347295e-03 -1.001526e-03 +7.537916e-03 +1.491309e-02 -1.594761e-01 -7.973093e-02 +3.401303e-02 +2.124518e-02
41.324187 +3.570819e-02 +2.781924e-02 -1.739944e-01 -3.488880e-02 +7.727640e-03 +1.482308e-02 +2.005050e-03 -1.578791e-03
         -1.739944e-01 -3.488880e-02 +3.570819e-02 +2.781924e-02 +2.005050e-03 -1.578791e-03 +7.727640e-03 +1.482308e-02
         +7.727640e-03 +1.482308e-02 +2.005050e-03 -1.578791e-03 +3.570819e-02 +2.781924e-02 -1.739944e-01 -3.488880e-02
         +2.005050e-03 -1.578791e-03 +7.727640e-03 +1.482308e-02 -1.739944e-01 -3.488880e-02 +3.570819e-02 +2.781924e-02
41.424125 +3.785303e-02 +3.426064e-02 -1.762228e-01 +1.197581e-02 +7.916279e-03 +1.473063e-02 +1.524149e-03 -2.046867e-03
         -1.762228e-01 +1.197581e-02 +3.785303e-02 +3.426064e-02 +1.524149e-03 -2.046867e-03 +7.916279e-03 +1.473063e-02
         +7.916279e-03 +1.473063e-02 +1.524149e-03 -2.046867e-03 +3.785303e-02 +3.426064e-02 -1.762228e-01 +1.197581e-02
         +1.524149e-03 -2.046867e-03 +7.916279e-03 +1.473063e-02 -1.762228e-01 +1.197581e-02 +3.785303e-02 +3.426064e-02
41.524062 +4.043732e-02 +4.053865e-02 -1.661162e-01 +5.757379e-02 +8.103802e-03 +1.463576e-02 +9.378571e-04 -2.373385e-03
         -1.661162e-01 +5.757379e-02 +4.043732e-02 +4.053865e-02 +9.378571e-04 -2.373385e-03 +8.103802e-03 +1.463576e-02
         +8.103802e-03 +1.463576e-02 +9.378571e-04 -2.373385e-03 +4.043732e-02 +4.053865e-02 -1.661162e-01 +5.757379e-02
         +9.378571e-04 -2.373385e-03 +8.103802e-03 +1.463576e-02 -1.661162e-01 +5.757379e-02 +4.043732e-02 +4.053865e-02
41.624000 +4.344873e-02 +4.662332e-02 -1.444895e-01 +9.873271e-02 +8.290177e-03 +1.453847e-02 +2.867260e-04 -2.535762e-03
         -1.444895e-01 +9.873271e-02 +4.344873e-02 +4.662332e-02 +2.867260e-04 -2.535762e-03 +8.290177e-03 +1.453847e-02
         +8.290177e-03 +1.453847e-02 +2.867260e-04 -2.535762e-03 +4.344873e-02 +4.662332e-02 -1.444895e-01 +9.873271e-02
         +2.867260e-04 -2.535762e-03 +8.290177e-03 +1.453847e-02 -1.444895e-01 +9.873271e-02 +4.344873e-02 +4.662332e-02
41.723937 +4.687291e-02 +5.248565e-02 -1.129544e-01 +1.326166e-01 +8.475372e-03 +1.443879e-02 -3.842075e-04 -2.522776e-03
         -1.129544e-01 +1.326166e-01 +4.687291e-02 +5.248565e-02 -3.842075e-04 -2.522776e-03 +8.475372e-03 +1.443879e-02
         +8.475372e-03 +1.443879e-02 -3.842075e-04 -2.522776e-03 +4.687291e-02 +5.248565e-02 -1.129544e-01 +1.326166e-01
         -3.842075e-04 -2.522776e-03 +8.475372e-03 +1.443879e-02 -1.129544e-01 +1.326166e-01 +4.687291e-02 +5.248565e-02
41.823875 +5.069353e-02 +5.809768e-02 -7.380003e-02 +1.569206e-01 +8.659358e-03 +1.433673e-02 -1.028539e-03 -2.335332e-03
         -7.380003e-02 +1.569206e-01 +5.069353e-02 +5.809768e-02 -1.028539e-03 -2.335332e-03 +8.659358e-03 +1.433673e-02
         +8.659358e-03 +1.433673e-02 -1.028539e-03 -2.335332e-03 +5.069353e-02 +5.809768e-02 -7.380003e-02 +1.569206e-01
         -1.028539e-03 -2.335332e-03 +8.659358e-03 +1.433673e-02 -7.380003e-02 +1.569206e-01 +5.069353e-02 +5.809768e-02
41.923813 +5.489236e-02 +6.343263e-02 -2.982901e-02 +1.700278e-01 +8.842103e-03 +1.423230e-02 -1.601707e-03 -1.986403e-03
         -2.982901e-02 +1.700278e-01 +5.489236e-02 +6.343263e-02 -1.601707e-03 -1.986403e-03 +8.842103e-03 +1.423230e-02
         +8.842103e-03 +1.423230e-02 -1.601707e-03 -1.986403e-03 +5.489236e-02 +6.343263e-02 -2.982901e-02 +1.700278e-01
         -1.601707e-03 -1.986403e-03 +8.842103e-03 +1.423230e-02 -2.982901e-02 +1.700278e-01 +5.489236e-02 +6.343263e-02
42.023750 +5.944938e-02 +6.846507e-02 +1.584237e-02 +1.711160e-01 +9.023576e-03 +1.412552e-02 -2.064074e-03 -1.500133e-03
         +1.584237e-02 +1.711160e-01 +5.944938e-02 +6.846507e-02 -2.064074e-03 -1.500133e-03 +9.023576e-03 +1.412552e-02
         +9.023576e-03 +1.412552e-02 -2.064074e-03 -1.500133e-03 +5.944938e-02 +6.846507e-02 +1.584237e-02 +1.711160e-01
         -2.064074e-03 -1.500133e-03 +9.023576e-03 +1.412552e-02 +1.584237e-02 +1.711160e-01 +5.944938e-02 +6.846507e-02
42.123688 +6.434286e-02 +7.317100e-02 +6.000367e-02 +1.602098e-01 +9.203748e-03 +1.401640e-02 -2.383670e-03 -9.101610e-04
         +6.000367e-02 +1.602098e-01 +6.434286e-02 +7.317100e-02 -2.383670e-03 -9.101610e-04 +9.203748e-03 +1.401640e-02
         +9.203748e-03 +1.401640e-02 -2.383670e-03 -9.101610e-04 +6.434286e-02 +7.317100e-02 +6.000367e-02 +1.602098e-01
         -2.383670e-03 -9.101610e-04 +9.203748e-03 +1.401640e-02 +6.000367e-02 +1.602098e-01 +6.434286e-02 +7.317100e-02
42.223625 +6.954946e-02 +7.752798e-02 +9.957520e-02 +1.381727e-01 +9.382587e-03 +1.390497e-02 -2.538403e-03 -2.573000e-04
         +9.957520e-02 +1.381727e-01 +6.954946e-02 +7.752798e-02 -2.538403e-03 -2.573000e-04 +9.382587e-03 +1.390497e-02
         +9.382587e-03 +1.390497e-02 -2.538403e-03 -2.573000e-04 +6.954946e-02 +7.752798e-02 +9.957520e-02 +1.381727e-01
         -2.538403e-03 -2.573000e-04 +9.382587e-03 +1.390497e-02 +9.957520e-02 +1.381727e-01 +6.954946e-02 +7.752798e-02
42.323562 +7.504435e-02 +8.151523e-02 +1.318223e-01 +1.066402e-01 +9.560064e-03 +1.379123e-02 -2.517586e-03 +4.132926e-04
         +1.318223e-01 +1.066402e-01 +7.504435e-02 +8.151523e-02 -2.517586e-03 +4.132926e-04 +9.560064e-03 +1.379123e-02
         +9.560064e-03 +1.379123e-02 -2.517586e-03 +4.132926e-04 +7.504435e-02 +8.151523e-02 +1.318223e-01 +1.066402e-01
         -2.517586e-03 +4.132926e-04 +9.560064e-03 +1.379123e-02 +1.318223e-01 +1.066402e-01 +7.504435e-02 +8.151523e-02
42.423500 +8.080132e-02 +8.511372e-02 +1.545442e-01 +6.790068e-02 +9.736149e-03 +1.367521e-02 -2.322677e-03 +1.055236e-03
         +1.545442e-01 +6.790068e-02 +8.080132e-02 +8.511372e-02 -2.322677e-03 +1.055236e-03 +9.736149e-03 +1.367521e-02
         +9.736149e-03 +1.367521e-02 -2.322677e-03 +1.055236e-03 +8.080132e-02 +8.511372e-02 +1.545442e-01 +6.790068e-02
         -2.322677e-03 +1.055236e-03 +9.736149e-03 +1.367521e-02 +1.545442e-01 +6.790068e-02 +8.080132e-02 +8.511372e-02
42.523438 +8.679292e-02 +8.830631e-02 +1.662243e-01 +2.473031e-02 +9.910812e-03 +1.355692e-02 -1.967174e-03 +1.624138e-03
         +1.662243e-01 +2.473031e-02 +8.679292e-02 +8.830631e-02 -1.967174e-03 +1.624138e-03 +9.910812e-03 +1.355692e-02
         +9.910812e-03 +1.355692e-02 -1.967174e-03 +1.624138e-03 +8.679292e-02 +8.830631e-02 +1.662243e-01 +2.473031e-02
         -1.967174e-03 +1.624138e-03 +9.910812e-03 +1.355692e-02 +1.662243e-01 +2.473031e-02 +8.679292e-02 +8.830631e-02
42.623375 +9.299058e-02 +9.107776e-02 +1.661323e-01 -1.980463e-02 +1.008402e-02 +1.343637e-02 -1.475683e-03 +2.080660e-03
         +1.661323e-01 -1.980463e-02 +9.299058e-02 +9.107776e-02 -1.475683e-03 +2.080660e-03 +1.008402e-02 +1.343637e-02
         +1.008402e-02 +1.343637e-02 -1.475683e-03 +2.080660e-03 +9.299058e-02 +9.107776e-02 +1.661323e-01 -1.980463e-02
         -1.475683e-03 +2.080660e-03 +1.008402e-02 +1.343637e-02 +1.661323e-01 -1.980463e-02 +9.299058e-02 +9.107776e-02
42.723312 +9.936474e-02 +9.341486e-02 +1.543694e-01 -6.256480e-02 +1.025576e-02 +1.331360e-02 -8.822101e-04 +2.393245e-03
         +1.543694e-01 -6.256480e-02 +9.936474e-02 +9.341486e-02 -8.822101e-04 +2.393245e-03 +1.025576e-02 +1.331360e-02
         +1.025576e-02 +1.331360e-02 -8.822101e-04 +2.393245e-03 +9.936474e-02 +9.341486e-02 +1.543694e-01 -6.256480e-02
         -8.822101e-04 +2.393245e-03 +1.025576e-02 +1.331360e-02 +1.543694e-01 -6.256480e-02 +9.936474e-02 +9.341486e-02
42.823250 +1.058850e-01 +9.530647e-02 +1.318565e-01 -1.005587e-01 +1.042598e-02 +1.318861e-02 -2.278146e-04 +2.540294e-03
         +1.318565e-01 -1.005587e-01 +1.058850e-01 +9.530647e-02 -2.278146e-04 +2.540294e-03 +1.042598e-02 +1.318861e-02
         +1.042598e-02 +1.318861e-02 -2.278146e-04 +2.540294e-03 +1.058850e-01 +9.530647e-02 +1.318565e-01 -1.005587e-01
         -2.278146e-04 +2.540294e-03 +1.042598e-02 +1.318861e-02 +1.318565e-01 -1.005587e-01 +1.058850e-01 +9.530647e-02
42.923187 +1.125203e-01 +9.674355e-02 +1.002636e-01 -1.311522e-01 +1.059467e-02 +1.306142e-02 +4.422384e-04 +2.511660e-03
         +1.002636e-01 -1.311522e-01 +1.125203e-01 +9.674355e-02 +4.422384e-04 +2.511660e-03 +1.059467e-02 +1.306142e-02
         +1.059467e-02 +1.306142e-02 +4.422384e-04 +2.511660e-03 +1.125203e-01 +9.674355e-02 +1.002636e-01 -1.311522e-01
         +4.422384e-04 +2.511660e-03 +1.059467e-02 +1.306142e-02 +1.002636e-01 -1.311522e-01 +1.125203e-01 +9.674355e-02
43.023125 +1.192389e-01 +9.771926e-02 +6.188784e-02 -1.522512e-01 +1.076179e-02 +1.293206e-02 +1.081607e-03 +2.309350e-03
         +6.188784e-02 -1.522512e-01 +1.192389e-01 +9.771926e-02 +1.081607e-03 +2.309350e-03 +1.076179e-02 +1.293206e-02
         +1.076179e-02 +1.293206e-02 +1.081607e-03 +2.309350e-03 +1.192389e-01 +9.771926e-02 +6.188784e-02 -1.522512e-01
         +1.081607e-03 +2.309350e-03 +1.076179e-02 +1.293206e-02 +6.188784e-02 -1.522512e-01 +1.192389e-01 +9.771926e-02
43.123063 +1.260088e-01 +9.822895e-02 +1.948719e-02 -1.624460e-01 +1.092731e-02 +1.280055e-02 +1.646078e-03 +1.947384e-03
         +1.948719e-02 -1.624460e-01 +1.260088e-01 +9.822895e-02 +1.646078e-03 +1.947384e-03 +1.092731e-02 +1.280055e-02
         +1.092731e-02 +1.280055e-02 +1.646078e-03 +1.947384e-03 +1.260088e-01 +9.822895e-02 +1.948719e-02 -1.624460e-01
         +1.646078e-03 +1.947384e-03 +1.092731e-02 +1.280055e-02 +1.948719e-02 -1.624460e-01 +1.260088e-01 +9.822895e-02
43.223000 +1.327978e-01 +9.827018e-02 -2.391668e-02 -1.611063e-01 +1.109121e-02 +1.266689e-02 +2.096628e-03 +1.450821e-03
         -2.391668e-02 -1.611063e-01 +1.327978e-01 +9.827018e-02 +2.096628e-03 +1.450821e-03 +1.109121e-02 +1.266689e-02
         +1.109121e-02 +1.266689e-02 +2.096628e-03 +1.450821e-03 +1.327978e-01 +9.827018e-02 -2.391668e-02 -1.611063e-01
         +2.096628e-03 +1.450821e-03 +1.109121e-02 +1.266689e-02 -2.391668e-02 -1.611063e-01 +1.327978e-01 +9.827018e-02
43.322937 +1.395734e-01 +9.784276e-02 -6.525359e-02 -1.484205e-01 +1.125347e-02 +1.253112e-02 +2.402117e-03 +8.540259e-04
         -6.525359e-02 -1.484205e-01 +1.395734e-01 +9.784276e-02 +2.402117e-03 +8.540259e-04 +1.125347e-02 +1.253112e-02
         +1.125347e-02 +1.253112e-02 +2.402117e-03 +8.540259e-04 +1.395734e-01 +9.784276e-02 -6.525359e-02 -1.484205e-01
         +2.402117e-03 +8.540259e-04 +1.125347e-02 +1.253112e-02 -6.525359e-02 -1.484205e-01 +1.395734e-01 +9.784276e-02
43.422875 +1.463034e-01 +9.694872e-02 -1.016222e-01 -1.253772e-01 +1.141404e-02 +1.239326e-02 +2.541447e-03 +1.982890e-04
         -1.016222e-01 -1.253772e-01 +1.463034e-01 +9.694872e-02 +2.541447e-03 +1.982890e-04 +1.141404e-02 +1.239326e-02
         +1.141404e-02 +1.239326e-02 +2.541447e-03 +1.982890e-04 +1.463034e-01 +9.694872e-02 -1.016222e-01 -1.253772e-01
         +2.541447e-03 +1.982890e-04 +1.141404e-02 +1.239326e-02 -1.016222e-01 -1.253772e-01 +1.463034e-01 +9.694872e-02
43.522813 +1.529556e-01 +9.559233e-02 -1.304942e-01 -9.368997e-02 +1.157291e-02 +1.225332e-02 +2.505013e-03 -4.710294e-04
         -1.304942e-01 -9.368997e-02 +1.529556e-01 +9.559233e-02 +2.505013e-03 -4.710294e-04 +1.157291e-02 +1.225332e-02
         +1.157291e-02 +1.225332e-02 +2.505013e-03 -4.710294e-04 +1.529556e-01 +9.559233e-02 -1.304942e-01 -9.368997e-02
         +2.505013e-03 -4.710294e-04 +1.157291e-02 +1.225332e-02 -1.304942e-01 -9.368997e-02 +1.529556e-01 +9.559233e-02
43.622750 +1.594984e-01 +9.378007e-02 -1.498908e-01 -5.567130e-02 +1.173005e-02 +1.211133e-02 +2.295370e-03 -1.107639e-03
         -1.498908e-01 -5.567130e-02 +1.594984e-01 +9.378007e-02 +2.295370e-03 -1.107639e-03 +1.173005e-02 +1.211133e-02
         +1.173005e-02 +1.211133e-02 +2.295370e-03 -1.107639e-03 +1.594984e-01 +9.378007e-02 -1.498908e-01 -5.567130e-02
         +2.295370e-03 -1.107639e-03 +1.173005e-02 +1.211133e-02 -1.498908e-01 -5.567130e-02 +1.594984e-01 +9.378007e-02
43.722687 +1.659005e-01 +9.152056e-02 -1.585199e-01 -1.406440e-02 +1.188543e-02 +1.196730e-02 +1.927055e-03 -1.667522e-03
         -1.585199e-01 -1.406440e-02 +1.659005e-01 +9.152056e-02 +1.927055e-03 -1.667522e-03 +1.188543e-02 +1.196730e-02
         +1.188543e-02 +1.196730e-02 +1.927055e-03 -1.667522e-03 +1.659005e-01 +9.152056e-02 -1.585199e-01 -1.406440e-02
         +1.927055e-03 -1.667522e-03 +1.188543e-02 +1.196730e-02 -1.585199e-01 -1.406440e-02 +1.659005e-01 +9.152056e-02
43.822625 +1.721313e-01 +8.882459e-02 -1.558626e-01 +2.815436e-02 +1.203903e-02 +1.182127e-02 +1.425571e-03 -2.111976e-03
         -1.558626e-01 +2.815436e-02 +1.721313e-01 +8.882459e-02 +1.425571e-03 -2.111976e-03 +1.203903e-02 +1.182127e-02
         +1.203903e-02 +1.182127e-02 +1.425571e-03 -2.111976e-03 +1.721313e-01 +8.882459e-02 -1.558626e-01 +2.815436e-02
         +1.425571e-03 -2.111976e-03 +1.203903e-02 +1.182127e-02 -1.558626e-01 +2.815436e-02 +1.721313e-01 +8.882459e-02
43.922562 +1.781613e-01 +8.570501e-02 -1.422049e-01 +6.798870e-02 +1.219082e-02 +1.167325e-02 +8.256291e-04 -2.410292e-03
         -1.422049e-01 +6.798870e-02 +1.781613e-01 +8.570501e-02 +8.256291e-04 -2.410292e-03 +1.219082e-02 +1.167325e-02
         +1.219082e-02 +1.167325e-02 +8.256291e-04 -2.410292e-03 +1.781613e-01 +8.570501e-02 -1.422049e-01 +6.798870e-02
         +8.256291e-04 -2.410292e-03 +1.219082e-02 +1.167325e-02 -1.422049e-01 +6.798870e-02 +1.781613e-01 +8.570501e-02
44.022500 +1.839615e-01 +8.217670e-02 -1.186120e-01 +1.026357e-01 +1.234077e-02 +1.152326e-02 +1.687419e-04 -2.541872e-03
         -1.186120e-01 +1.026357e-01 +1.839615e-01 +8.217670e-02 +1.687419e-04 -2.541872e-03 +1.234077e-02 +1.152326e-02
         +1.234077e-02 +1.152326e-02 +1.687419e-04 -2.541872e-03 +1.839615e-01 +8.217670e-02 -1.186120e-01 +1.026357e-01
         +1.687419e-04 -2.541872e-03 +1.234077e-02 +1.152326e-02 -1.186120e-01 +1.026357e-01 +1.839615e-01 +8.217670e-02
44.122438 +1.895044e-01 +7.825649e-02 -8.684618e-02 +1.296841e-01 +1.248886e-02 +1.137134e-02 -4.996507e-04 -2.497660e-03
         -8.684618e-02 +1.296841e-01 +1.895044e-01 +7.825649e-02 -4.996507e-04 -2.497660e-03 +1.248886e-02 +1.137134e-02
         +1.248886e-02 +1.137134e-02 -4.996507e-04 -2.497660e-03 +1.895044e-01 +7.825649e-02 -8.684618e-02 +1.296841e-01
         -4.996507e-04 -2.497660e-03 +1.248886e-02 +1.137134e-02 -8.684618e-02 +1.296841e-01 +1.895044e-01 +7.825649e-02
44.222375 +1.947636e-01 +7.396307e-02 -4.923660e-02 +1.472832e-01 +1.263506e-02 +1.121749e-02 -1.133324e-03 -2.280756e-03
         -4.923660e-02 +1.472832e-01 +1.947636e-01 +7.396307e-02 -1.133324e-03 -2.280756e-03 +1.263506e-02 +1.121749e-02
         +1.263506e-02 +1.121749e-02 -1.133324e-03 -2.280756e-03 +1.947636e-01 +7.396307e-02 -4.923660e-02 +1.472832e-01
         -1.133324e-03 -2.280756e-03 +1.263506e-02 +1.121749e-02 -4.923660e-02 +1.472832e-01 +1.947636e-01 +7.396307e-02
44.322312 +1.997138e-01 +6.931692e-02 -8.508366e-03 +1.542707e-01 +1.277935e-02 +1.106176e-02 -1.688465e-03 -1.906206e-03
         -8.508366e-03 +1.542707e-01 +1.997138e-01 +6.931692e-02 -1.688465e-03 -1.906206e-03 +1.277935e-02 +1.106176e-02
         +1.277935e-02 +1.106176e-02 -1.688465e-03 -1.906206e-03 +1.997138e-01 +6.931692e-02 -8.508366e-03 +1.542707e-01
         -1.688465e-03 -1.906206e-03 +1.277935e-02 +1.106176e-02 -8.508366e-03 +1.542707e-01 +1.997138e-01 +6.931692e-02
44.422250 +2.043317e-01 +6.434020e-02 +3.241504e-02 +1.502504e-01 +1.292170e-02 +1.090415e-02 -2.126707e-03 -1.399952e-03
         +3.241504e-02 +1.502504e-01 +2.043317e-01 +6.434020e-02 -2.126707e-03 -1.399952e-03 +1.292170e-02 +1.090415e-02
         +1.292170e-02 +1.090415e-02 -2.126707e-03 -1.399952e-03 +2.043317e-01 +6.434020e-02 +3.241504e-02 +1.502504e-01
         -2.126707e-03 -1.399952e-03 +1.292170e-02 +1.090415e-02 +3.241504e-02 +1.502504e-01 +2.043317e-01 +6.434020e-02
44.522187 +2.085950e-01 +5.905664e-02 +7.062242e-02 +1.356142e-01 +1.306209e-02 +1.074470e-02 -2.417775e-03 -7.970403e-04
         +7.062242e-02 +1.356142e-01 +2.085950e-01 +5.905664e-02 -2.417775e-03 -7.970403e-04 +1.306209e-02 +1.074470e-02
         +1.306209e-02 +1.074470e-02 -2.417775e-03 -7.970403e-04 +2.085950e-01 +5.905664e-02 +7.062242e-02 +1.356142e-01
         -2.417775e-03 -7.970403e-04 +1.306209e-02 +1.074470e-02 +7.062242e-02 +1.356142e-01 +2.085950e-01 +5.905664e-02
44.622125 +2.124835e-01 +5.349143e-02 +1.034230e-01 +1.115075e-01 +1.320050e-02 +1.058343e-02 -2.541583e-03 -1.391910e-04
         +1.034230e-01 +1.115075e-01 +2.124835e-01 +5.349143e-02 -2.541583e-03 -1.391910e-04 +1.320050e-02 +1.058343e-02
         +1.320050e-02 +1.058343e-02 -2.541583e-03 -1.391910e-04 +2.124835e-01 +5.349143e-02 +1.034230e-01 +1.115075e-01
         -2.541583e-03 -1.391910e-04 +1.320050e-02 +1.058343e-02 +1.034230e-01 +1.115075e-01 +2.124835e-01 +5.349143e-02
44.722062 +2.159786e-01 +4.767113e-02 +1.285370e-01 +7.974067e-02 +1.333690e-02 +1.042036e-02 -2.489618e-03 +5.280880e-04
         +1.285370e-01 +7.974067e-02 +2.159786e-01 +4.767113e-02 -2.489618e-03 +5.280880e-04 +1.333690e-02 +1.042036e-02
         +1.333690e-02 +1.042036e-02 -2.489618e-03 +5.280880e-04 +2.159786e-01 +4.767113e-02 +1.285370e-01 +7.974067e-02
         -2.489618e-03 +5.280880e-04 +1.333690e-02 +1.042036e-02 +1.285370e-01 +7.974067e-02 +2.159786e-01 +4.767113e-02
44.822000 +2.190637e-01 +4.162347e-02 +1.442557e-01 +4.265366e-02 +1.347126e-02 +1.025552e-02 -2.265527e-03 +1.158650e-03
         +1.442557e-01 +4.265366e-02 +2.190637e-01 +4.162347e-02 -2.265527e-03 +1.158650e-03 +1.347126e-02 +1.025552e-02
         +1.347126e-02 +1.025552e-02 -2.265527e-03 +1.158650e-03 +2.190637e-01 +4.162347e-02 +1.442557e-01 +4.265366e-02
         -2.265527e-03 +1.158650e-03 +1.347126e-02 +1.025552e-02 +1.442557e-01 +4.265366e-02 +2.190637e-01 +4.162347e-02
44.921937 +2.217241e-01 +3.537732e-02 +1.495583e-01 +2.943094e-03 +1.360357e-02 +1.008893e-02 -1.884859e-03 +1.708903e-03
         +1.495583e-01 +2.943094e-03 +2.217241e-01 +3.537732e-02 -1.884859e-03 +1.708903e-03 +1.360357e-02 +1.008893e-02
         +1.360357e-02 +1.008893e-02 -1.884859e-03 +1.708903e-03 +2.217241e-01 +3.537732e-02 +1.495583e-01 +2.943094e-03
         -1.884859e-03 +1.708903e-03 +1.360357e-02 +1.008893e-02 +1.495583e-01 +2.943094e-03 +2.217241e-01 +3.537732e-02
45.021875 +2.239470e-01 +2.896245e-02 +1.441787e-01 -3.653436e-02 +1.373381e-02 +9.920630e-03 -1.373986e-03 +2.140820e-03
         +1.441787e-01 -3.653436e-02 +2.239470e-01 +2.896245e-02 -1.373986e-03 +2.140820e-03 +1.373381e-02 +9.920630e-03
         +1.373381e-02 +9.920630e-03 -1.373986e-03 +2.140820e-03 +2.239470e-01 +2.896245e-02 +1.441787e-01 -3.653436e-02
         -1.373986e-03 +2.140820e-03 +1.373381e-02 +9.920630e-03 +1.441787e-01 -3.653436e-02 +2.239470e-01 +2.896245e-02
45.121813 +2.257218e-01 +2.240946e-02 +1.286171e-01 -7.296858e-02 +1.386194e-02 +9.750634e-03 -7.682791e-04 +2.424573e-03
         +1.286171e-01 -7.296858e-02 +2.257218e-01 +2.240946e-02 -7.682791e-04 +2.424573e-03 +1.386194e-02 +9.750634e-03
         +1.386194e-02 +9.750634e-03 -7.682791e-04 +2.424573e-03 +2.257218e-01 +2.240946e-02 +1.286171e-01 -7.296858e-02
         -7.682791e-04 +2.424573e-03 +1.386194e-02 +9.750634e-03 +1.286171e-01 -7.296858e-02 +2.257218e-01 +2.240946e-02
45.221750 +2.270402e-01 +1.574959e-02 +1.040964e-01 -1.037972e-01 +1.398796e-02 +9.578973e-03 -1.096539e-04 +2.540588e-03
         +1.040964e-01 -1.037972e-01 +2.270402e-01 +1.574959e-02 -1.096539e-04 +2.540588e-03 +1.398796e-02 +9.578973e-03
         +1.398796e-02 +9.578973e-03 -1.096539e-04 +2.540588e-03 +2.270402e-01 +1.574959e-02 +1.040964e-01 -1.037972e-01
         -1.096539e-04 +2.540588e-03 +1.398796e-02 +9.578973e-03 +1.040964e-01 -1.037972e-01 +2.270402e-01 +1.574959e-02
45.321687 +2.278958e-01 +9.014618e-03 +7.246696e-02 -1.268872e-01 +1.411182e-02 +9.405671e-03 +5.563274e-04 +2.480902e-03
         +7.246696e-02 -1.268872e-01 +2.278958e-01 +9.014618e-03 +5.563274e-04 +2.480902e-03 +1.411182e-02 +9.405671e-03
         +1.411182e-02 +9.405671e-03 +5.563274e-04 +2.480902e-03 +2.278958e-01 +9.014618e-03 +7.246696e-02 -1.268872e-01
         +5.563274e-04 +2.480902e-03 +1.411182e-02 +9.405671e-03 +7.246696e-02 -1.268872e-01 +2.278958e-01 +9.014618e-03
45.421625 +2.282846e-01 +2.236653e-03 +3.606641e-02 -1.406830e-01 +1.423353e-02 +9.230758e-03 +1.183610e-03 +2.249700e-03
         +3.606641e-02 -1.406830e-01 +2.282846e-01 +2.236653e-03 +1.183610e-03 +2.249700e-03 +1.423353e-02 +9.230758e-03
         +1.423353e-02 +9.230758e-03 +1.183610e-03 +2.249700e-03 +2.282846e-01 +2.236653e-03 +3.606641e-02 -1.406830e-01
         +1.183610e-03 +2.249700e-03 +1.423353e-02 +9.230758e-03 +3.606641e-02 -1.406830e-01 +2.282846e-01 +2.236653e-03
45.521562 +2.282046e-01 -4.551979e-03 -2.453311e-03 -1.443122e-01 +1.435305e-02 +9.054259e-03 +1.728830e-03 +1.863033e-03
         -2.453311e-03 -1.443122e-01 +2.282046e-01 -4.551979e-03 +1.728830e-03 +1.863033e-03 +1.435305e-02 +9.054259e-03
         +1.435305e-02 +9.054259e-03 +1.728830e-03 +1.863033e-03 +2.282046e-01 -4.551979e-03 -2.453311e-03 -1.443122e-01
         +1.728830e-03 +1.863033e-03 +1.435305e-02 +9.054259e-03 -2.453311e-03 -1.443122e-01 +2.282046e-01 -4.551979e-03
45.621500 +2.276562e-01 -1.131890e-02 -4.032034e-02 -1.376401e-01 +1.447036e-02 +8.876204e-03 +2.154317e-03 +1.347694e-03
         -4.032034e-02 -1.376401e-01 +2.276562e-01 -1.131890e-02 +2.154317e-03 +1.347694e-03 +1.447036e-02 +8.876204e-03
         +1.447036e-02 +8.876204e-03 +2.154317e-03 +1.347694e-03 +2.276562e-01 -1.131890e-02 -4.032034e-02 -1.376401e-01
         +2.154317e-03 +1.347694e-03 +1.447036e-02 +8.876204e-03 -4.032034e-02 -1.376401e-01 +2.276562e-01 -1.131890e-02
45.721438 +2.266422e-01 -1.803184e-02 -7.484336e-02 -1.212708e-01 +1.458544e-02 +8.696618e-03 +2.430692e-03 +7.393651e-04
         -7.484336e-02 -1.212708e-01 +2.266422e-01 -1.803184e-02 +2.430692e-03 +7.393651e-04 +1.458544e-02 +8.696618e-03
         +1.458544e-02 +8.696618e-03 +2.430692e-03 +7.393651e-04 +2.266422e-01 -1.803184e-02 -7.484336e-02 -1.212708e-01
         +2.430692e-03 +7.393651e-04 +1.458544e-02 +8.696618e-03 -7.484336e-02 -1.212708e-01 +2.266422e-01 -1.803184e-02
45.821375 +2.251672e-01 -2.465879e-02 -1.036040e-01 -9.649430e-02 +1.469828e-02 +8.515531e-03 +2.538901e-03 +8.014747e-05
         -1.036040e-01 -9.649430e-02 +2.251672e-01 -2.465879e-02 +2.538901e-03 +8.014747e-05 +1.469828e-02 +8.515531e-03
         +1.469828e-02 +8.515531e-03 +2.538901e-03 +8.014747e-05 +2.251672e-01 -2.465879e-02 -1.036040e-01 -9.649430e-02
         +2.538901e-03 +8.014747e-05 +1.469828e-02 +8.515531e-03 -1.036040e-01 -9.649430e-02 +2.251672e-01 -2.465879e-02
45.921312 +2.232384e-01 -3.116814e-02 -1.246272e-01 -6.518557e-02 +1.480885e-02 +8.332972e-03 +2.471526e-03 -5.843557e-04
         -1.246272e-01 -6.518557e-02 +2.232384e-01 -3.116814e-02 +2.471526e-03 -5.843557e-04 +1.480885e-02 +8.332972e-03
         +1.480885e-02 +8.332972e-03 +2.471526e-03 -5.843557e-04 +2.232384e-01 -3.116814e-02 -1.246272e-01 -6.518557e-02
         +2.471526e-03 -5.843557e-04 +1.480885e-02 +8.332972e-03 -1.246272e-01 -6.518557e-02 +2.232384e-01 -3.116814e-02
46.021250 +2.208650e-01 -3.752885e-02 -1.365171e-01 -2.966211e-02 +1.491714e-02 +8.148968e-03 +2.233295e-03 -1.208193e-03
         -1.365171e-01 -2.966211e-02 +2.208650e-01 -3.752885e-02 +2.233295e-03 -1.208193e-03 +1.491714e-02 +8.148968e-03
         +1.491714e-02 +8.148968e-03 +2.233295e-03 -1.208193e-03 +2.208650e-01 -3.752885e-02 -1.365171e-01 -2.966211e-02
         +2.233295e-03 -1.208193e-03 +1.491714e-02 +8.148968e-03 -1.365171e-01 -2.966211e-02 +2.208650e-01 -3.752885e-02
46.121188 +2.180582e-01 -4.371059e-02 -1.385496e-01 +7.488355e-03 +1.502312e-02 +7.963548e-03 +1.840749e-03 -1.748244e-03
         -1.385496e-01 +7.488355e-03 +2.180582e-01 -4.371059e-02 +1.840749e-03 -1.748244e-03 +1.502312e-02 +7.963548e-03
         +1.502312e-02 +7.963548e-03 +1.840749e-03 -1.748244e-03 +2.180582e-01 -4.371059e-02 -1.385496e-01 +7.488355e-03
         +1.840749e-03 -1.748244e-03 +1.502312e-02 +7.963548e-03 -1.385496e-01 +7.488355e-03 +2.180582e-01 -4.371059e-02
46.221125 +2.148314e-01 -4.968386e-02 -1.307151e-01 +4.359729e-02 +1.512677e-02 +7.776743e-03 +1.321095e-03 -2.167200e-03
         -1.307151e-01 +4.359729e-02 +2.148314e-01 -4.968386e-02 +1.321095e-03 -2.167200e-03 +1.512677e-02 +7.776743e-03
         +1.512677e-02 +7.776743e-03 +1.321095e-03 -2.167200e-03 +2.148314e-01 -4.968386e-02 -1.307151e-01 +4.359729e-02
         +1.321095e-03 -2.167200e-03 +1.512677e-02 +7.776743e-03 -1.307151e-01 +4.359729e-02 +2.148314e-01 -4.968386e-02
46.321062 +2.112001e-01 -5.542019e-02 -1.137095e-01 +7.610796e-02 +1.522809e-02 +7.588580e-03 +7.103169e-04 -2.436140e-03
         -1.137095e-01 +7.610796e-02 +2.112001e-01 -5.542019e-02 +7.103169e-04 -2.436140e-03 +1.522809e-02 +7.588580e-03
         +1.522809e-02 +7.588580e-03 +7.103169e-04 -2.436140e-03 +2.112001e-01 -5.542019e-02 -1.137095e-01 +7.610796e-02
         +7.103169e-04 -2.436140e-03 +1.522809e-02 +7.588580e-03 -1.137095e-01 +7.610796e-02 +2.112001e-01 -5.542019e-02
46.421000 +2.071816e-01 -6.089223e-02 -8.887334e-02 +1.027572e-01 +1.532705e-02 +7.399091e-03 +5.068801e-05 -2.536533e-03
         -8.887334e-02 +1.027572e-01 +2.071816e-01 -6.089223e-02 +5.068801e-05 -2.536533e-03 +1.532705e-02 +7.399091e-03
         +1.532705e-02 +7.399091e-03 +5.068801e-05 -2.536533e-03 +2.071816e-01 -6.089223e-02 -8.887334e-02 +1.027572e-01
         +5.068801e-05 -2.536533e-03 +1.532705e-02 +7.399091e-03 -8.887334e-02 +1.027572e-01 +2.071816e-01 -6.089223e-02
46.520937 +2.027949e-01 -6.607386e-02 -5.808713e-02 +1.217332e-01 +1.542363e-02 +7.208304e-03 -6.121601e-04 -2.461508e-03
         -5.808713e-02 +1.217332e-01 +2.027949e-01 -6.607386e-02 -6.121601e-04 -2.461508e-03 +1.542363e-02 +7.208304e-03
         +1.542363e-02 +7.208304e-03 -6.121601e-04 -2.461508e-03 +2.027949e-01 -6.607386e-02 -5.808713e-02 +1.217332e-01
         -6.121601e-04 -2.461508e-03 +1.542363e-02 +7.208304e-03 -5.808713e-02 +1.217332e-01 +2.027949e-01 -6.607386e-02
46.620875 +1.980611e-01 -7.094039e-02 -2.362792e-02 +1.317986e-01 +1.551782e-02 +7.016249e-03 -1.232393e-03 -2.216329e-03
         -2.362792e-02 +1.317986e-01 +1.980611e-01 -7.094039e-02 -1.232393e-03 -2.216329e-03 +1.551782e-02 +7.016249e-03
         +1.551782e-02 +7.016249e-03 -1.232393e-03 -2.216329e-03 +1.980611e-01 -7.094039e-02 -2.362792e-02 +1.317986e-01
         -1.232393e-03 -2.216329e-03 +1.551782e-02 +7.016249e-03 -2.362792e-02 +1.317986e-01 +1.980611e-01 -7.094039e-02
46.720813 +1.930027e-01 -7.546860e-02 +1.199954e-02 +1.323704e-01 +1.560960e-02 +6.822958e-03 -1.767142e-03 -1.818026e-03
         +1.199954e-02 +1.323704e-01 +1.930027e-01 -7.546860e-02 -1.767142e-03 -1.818026e-03 +1.560960e-02 +6.822958e-03
         +1.560960e-02 +6.822958e-03 -1.767142e-03 -1.818026e-03 +1.930027e-01 -7.546860e-02 +1.199954e-02 +1.323704e-01
         -1.767142e-03 -1.818026e-03 +1.560960e-02 +6.822958e-03 +1.199954e-02 +1.323704e-01 +1.930027e-01 -7.546860e-02
46.820750 +1.876439e-01 -7.963690e-02 +4.624562e-02 +1.235512e-01 +1.569895e-02 +6.628460e-03 -2.179470e-03 -1.294208e-03
         +4.624562e-02 +1.235512e-01 +1.876439e-01 -7.963690e-02 -2.179470e-03 -1.294208e-03 +1.569895e-02 +6.628460e-03
         +1.569895e-02 +6.628460e-03 -2.179470e-03 -1.294208e-03 +1.876439e-01 -7.963690e-02 +4.624562e-02 +1.235512e-01
         -2.179470e-03 -1.294208e-03 +1.569895e-02 +6.628460e-03 +4.624562e-02 +1.235512e-01 +1.876439e-01 -7.963690e-02
46.920687 +1.820102e-01 -8.342541e-02 +7.669875e-02 +1.061109e-01 +1.578586e-02 +6.432786e-03 -2.440924e-03 -6.811530e-04
         +7.669875e-02 +1.061109e-01 +1.820102e-01 -8.342541e-02 -2.440924e-03 -6.811530e-04 +1.578586e-02 +6.432786e-03
         +1.578586e-02 +6.432786e-03 -2.440924e-03 -6.811530e-04 +1.820102e-01 -8.342541e-02 +7.669875e-02 +1.061109e-01
         -2.440924e-03 -6.811530e-04 +1.578586e-02 +6.432786e-03 +7.669875e-02 +1.061109e-01 +1.820102e-01 -8.342541e-02
47.020625 +1.761284e-01 -8.681607e-02 +1.012555e-01 +8.142129e-02 +1.587031e-02 +6.235968e-03 -2.533494e-03 -2.129138e-05
         +1.012555e-01 +8.142129e-02 +1.761284e-01 -8.681607e-02 -2.533494e-03 -2.129138e-05 +1.587031e-02 +6.235968e-03
         +1.587031e-02 +6.235968e-03 -2.533494e-03 -2.129138e-05 +1.761284e-01 -8.681607e-02 +1.012555e-01 +8.142129e-02
         -2.533494e-03 -2.129138e-05 +1.587031e-02 +6.235968e-03 +1.012555e-01 +8.142129e-02 +1.761284e-01 -8.681607e-02
47.120563 +1.700266e-01 -8.979269e-02 +1.182657e-01 +5.134797e-02 +1.595229e-02 +6.038036e-03 -2.450860e-03 +6.397284e-04
         +1.182657e-01 +5.134797e-02 +1.700266e-01 -8.979269e-02 -2.450860e-03 +6.397284e-04 +1.595229e-02 +6.038036e-03
         +1.595229e-02 +6.038036e-03 -2.450860e-03 +6.397284e-04 +1.700266e-01 -8.979269e-02 +1.182657e-01 +5.134797e-02
         -2.450860e-03 +6.397284e-04 +1.595229e-02 +6.038036e-03 +1.182657e-01 +5.134797e-02 +1.700266e-01 -8.979269e-02
47.220500 +1.637339e-01 -9.234109e-02 +1.266423e-01 +1.810912e-02 +1.603178e-02 +5.839022e-03 -2.198820e-03 +1.256200e-03
         +1.266423e-01 +1.810912e-02 +1.637339e-01 -9.234109e-02 -2.198820e-03 +1.256200e-03 +1.603178e-02 +5.839022e-03
         +1.603178e-02 +5.839022e-03 -2.198820e-03 +1.256200e-03 +1.637339e-01 -9.234109e-02 +1.266423e-01 +1.810912e-02
         -2.198820e-03 +1.256200e-03 +1.603178e-02 +5.839022e-03 +1.266423e-01 +1.810912e-02 +1.637339e-01 -9.234109e-02
47.320437 +1.572804e-01 -9.444912e-02 +1.259298e-01 -1.588847e-02 +1.610878e-02 +5.638956e-03 -1.794883e-03 +1.785519e-03
         +1.259298e-01 -1.588847e-02 +1.572804e-01 -9.444912e-02 -1.794883e-03 +1.785519e-03 +1.610878e-02 +5.638956e-03
         +1.610878e-02 +5.638956e-03 -1.794883e-03 +1.785519e-03 +1.572804e-01 -9.444912e-02 +1.259298e-01 -1.588847e-02
         -1.794883e-03 +1.785519e-03 +1.610878e-02 +5.638956e-03 +1.259298e-01 -1.588847e-02 +1.572804e-01 -9.444912e-02
47.420375 +1.506968e-01 -9.610671e-02 +1.163254e-01 -4.822398e-02 +1.618325e-02 +5.437872e-03 -1.267054e-03 +2.191130e-03
         +1.163254e-01 -4.822398e-02 +1.506968e-01 -9.610671e-02 -1.267054e-03 +2.191130e-03 +1.618325e-02 +5.437872e-03
         +1.618325e-02 +5.437872e-03 -1.267054e-03 +2.191130e-03 +1.506968e-01 -9.610671e-02 +1.163254e-01 -4.822398e-02
         -1.267054e-03 +2.191130e-03 +1.618325e-02 +5.437872e-03 +1.163254e-01 -4.822398e-02 +1.506968e-01 -9.610671e-02
47.520312 +1.440144e-01 -9.730597e-02 +9.865426e-02 -7.663499e-02 +1.625520e-02 +5.235800e-03 -6.518913e-04 +2.445049e-03
         +9.865426e-02 -7.663499e-02 +1.440144e-01 -9.730597e-02 -6.518913e-04 +2.445049e-03 +1.625520e-02 +5.235800e-03
         +1.625520e-02 +5.235800e-03 -6.518913e-04 +2.445049e-03 +1.440144e-01 -9.730597e-02 +9.865426e-02 -7.663499e-02
         -6.518913e-04 +2.445049e-03 +1.625520e-02 +5.235800e-03 +9.865426e-02 -7.663499e-02 +1.440144e-01 -9.730597e-02
47.620250 +1.372652e-01 -9.804118e-02 +7.429930e-02 -9.917550e-02 +1.632461e-02 +5.032773e-03 +8.027094e-06 +2.529797e-03
         +7.429930e-02 -9.917550e-02 +1.372652e-01 -9.804118e-02 +8.027094e-06 +2.529797e-03 +1.632461e-02 +5.032773e-03
         +1.632461e-02 +5.032773e-03 +8.027094e-06 +2.529797e-03 +1.372652e-01 -9.804118e-02 +7.429930e-02 -9.917550e-02
         +8.027094e-06 +2.529797e-03 +1.632461e-02 +5.032773e-03 +7.429930e-02 -9.917550e-02 +1.372652e-01 -9.804118e-02
47.720188 +1.304814e-01 -9.830882e-02 +4.509368e-02 -1.143486e-01 +1.639146e-02 +4.828824e-03 +6.670489e-04 +2.439600e-03
         +4.509368e-02 -1.143486e-01 +1.304814e-01 -9.830882e-02 +6.670489e-04 +2.439600e-03 +1.639146e-02 +4.828824e-03
         +1.639146e-02 +4.828824e-03 +6.670489e-04 +2.439600e-03 +1.304814e-01 -9.830882e-02 +4.509368e-02 -1.143486e-01
         +6.670489e-04 +2.439600e-03 +1.639146e-02 +4.828824e-03 +4.509368e-02 -1.143486e-01 +1.304814e-01 -9.830882e-02
47.820125 +1.236953e-01 -9.810763e-02 +1.318261e-02 -1.212045e-01 +1.645575e-02 +4.623983e-03 +1.279608e-03 +2.180786e-03
         +1.318261e-02 -1.212045e-01 +1.236953e-01 -9.810763e-02 +1.279608e-03 +2.180786e-03 +1.645575e-02 +4.623983e-03
         +1.645575e-02 +4.623983e-03 +1.279608e-03 +2.180786e-03 +1.236953e-01 -9.810763e-02 +1.318261e-02 -1.212045e-01
         +1.279608e-03 +2.180786e-03 +1.645575e-02 +4.623983e-03 +1.318261e-02 -1.212045e-01 +1.236953e-01 -9.810763e-02
47.920063 +1.169392e-01 -9.743856e-02 -1.913424e-02 -1.193984e-01 +1.651745e-02 +4.418285e-03 +1.803375e-03 +1.771340e-03
         -1.913424e-02 -1.193984e-01 +1.169392e-01 -9.743856e-02 +1.803375e-03 +1.771340e-03 +1.651745e-02 +4.418285e-03
         +1.651745e-02 +4.418285e-03 +1.803375e-03 +1.771340e-03 +1.169392e-01 -9.743856e-02 -1.913424e-02 -1.193984e-01
         +1.803375e-03 +1.771340e-03 +1.651745e-02 +4.418285e-03 -1.913424e-02 -1.193984e-01 +1.169392e-01 -9.743856e-02
48.020000 +1.102455e-01 -9.630480e-02 -4.956831e-02 -1.092040e-01 +1.657657e-02 +4.211761e-03 +2.202183e-03 +1.239651e-03
         -4.956831e-02 -1.092040e-01 +1.102455e-01 -9.630480e-02 +2.202183e-03 +1.239651e-03 +1.657657e-02 +4.211761e-03
         +1.657657e-02 +4.211761e-03 +2.202183e-03 +1.239651e-03 +1.102455e-01 -9.630480e-02 -4.956831e-02 -1.092040e-01
         +2.202183e-03 +1.239651e-03 +1.657657e-02 +4.211761e-03 -4.956831e-02 -1.092040e-01 +1.102455e-01 -9.630480e-02
48.119938 +1.036459e-01 -9.471177e-02 -7.600392e-02 -9.148264e-02 +1.663309e-02 +4.004445e-03 +2.448525e-03 +6.225490e-04
         -7.600392e-02 -9.148264e-02 +1.036459e-01 -9.471177e-02 +2.448525e-03 +6.225490e-04 +1.663309e-02 +4.004445e-03
         +1.663309e-02 +4.004445e-03 +2.448525e-03 +6.225490e-04 +1.036459e-01 -9.471177e-02 -7.600392e-02 -9.148264e-02
         +2.448525e-03 +6.225490e-04 +1.663309e-02 +4.004445e-03 -7.600392e-02 -9.148264e-02 +1.036459e-01 -9.471177e-02
48.219875 +9.717205e-02 -9.266705e-02 -9.664464e-02 -6.761234e-02 +1.668700e-02 +3.796369e-03 +2.525453e-03 -3.725256e-05
         -9.664464e-02 -6.761234e-02 +9.717205e-02 -9.266705e-02 +2.525453e-03 -3.725256e-05 +1.668700e-02 +3.796369e-03
         +1.668700e-02 +3.796369e-03 +2.525453e-03 -3.725256e-05 +9.717205e-02 -9.266705e-02 -9.664464e-02 -6.761234e-02
         +2.525453e-03 -3.725256e-05 +1.668700e-02 +3.796369e-03 -9.664464e-02 -6.761234e-02 +9.717205e-02 -9.266705e-02
48.319812 +9.085473e-02 -9.018040e-02 -1.101344e-01 -3.938076e-02 +1.673828e-02 +3.587567e-03 +2.427741e-03 -6.941102e-04
         -1.101344e-01 -3.938076e-02 +9.085473e-02 -9.018040e-02 +2.427741e-03 -6.941102e-04 +1.673828e-02 +3.587567e-03
         +1.673828e-02 +3.587567e-03 +2.427741e-03 -6.941102e-04 +9.085473e-02 -9.018040e-02 -1.101344e-01 -3.938076e-02
         +2.427741e-03 -6.941102e-04 +1.673828e-02 +3.587567e-03 -1.101344e-01 -3.938076e-02 +9.085473e-02 -9.018040e-02
48.419750 +8.472410e-02 -8.726367e-02 -1.156454e-01 -8.851722e-03 +1.678694e-02 +3.378072e-03 +2.162244e-03 -1.302610e-03
         -1.156454e-01 -8.851722e-03 +8.472410e-02 -8.726367e-02 +2.162244e-03 -1.302610e-03 +1.678694e-02 +3.378072e-03
         +1.678694e-02 +3.378072e-03 +2.162244e-03 -1.302610e-03 +8.472410e-02 -8.726367e-02 -1.156454e-01 -8.851722e-03
         +2.162244e-03 -1.302610e-03 +1.678694e-02 +3.378072e-03 -1.156454e-01 -8.851722e-03 +8.472410e-02 -8.726367e-02
48.519687 +7.880939e-02 -8.393079e-02 -1.129264e-01 +2.178533e-02 +1.683295e-02 +3.167918e-03 +1.747413e-03 -1.820706e-03
         -1.129264e-01 +2.178533e-02 +7.880939e-02 -8.393079e-02 +1.747413e-03 -1.820706e-03 +1.683295e-02 +3.167918e-03
         +1.683295e-02 +3.167918e-03 +1.747413e-03 -1.820706e-03 +7.880939e-02 -8.393079e-02 -1.129264e-01 +2.178533e-02
         +1.747413e-03 -1.820706e-03 +1.683295e-02 +3.167918e-03 -1.129264e-01 +2.178533e-02 +7.880939e-02 -8.393079e-02
48.619625 +7.313881e-02 -8.019764e-02 -1.023105e-01 +5.037193e-02 +1.687632e-02 +2.957137e-03 +1.212017e-03 -2.212630e-03
         -1.023105e-01 +5.037193e-02 +7.313881e-02 -8.019764e-02 +1.212017e-03 -2.212630e-03 +1.687632e-02 +2.957137e-03
         +1.687632e-02 +2.957137e-03 +1.212017e-03 -2.212630e-03 +7.313881e-02 -8.019764e-02 -1.023105e-01 +5.037193e-02
         +1.212017e-03 -2.212630e-03 +1.687632e-02 +2.957137e-03 -1.023105e-01 +5.037193e-02 +7.313881e-02 -8.019764e-02
48.719563 +6.773940e-02 -7.608202e-02 -8.468093e-02 +7.493200e-02 +1.691703e-02 +2.745764e-03 +5.931432e-04 -2.451358e-03
         -8.468093e-02 +7.493200e-02 +6.773940e-02 -7.608202e-02 +5.931432e-04 -2.451358e-03 +1.691703e-02 +2.745764e-03
         +1.691703e-02 +2.745764e-03 +5.931432e-04 -2.451358e-03 +6.773940e-02 -7.608202e-02 -8.468093e-02 +7.493200e-02
         +5.931432e-04 -2.451358e-03 +1.691703e-02 +2.745764e-03 -8.468093e-02 +7.493200e-02 +6.773940e-02 -7.608202e-02
48.819500 +6.263691e-02 -7.160356e-02 -6.139860e-02 +9.380761e-02 +1.695507e-02 +2.533831e-03 -6.637068e-05 -2.520473e-03
         -6.139860e-02 +9.380761e-02 +6.263691e-02 -7.160356e-02 -6.637068e-05 -2.520473e-03 +1.695507e-02 +2.533831e-03
         +1.695507e-02 +2.533831e-03 -6.637068e-05 -2.520473e-03 +6.263691e-02 -7.160356e-02 -6.139860e-02 +9.380761e-02
         -6.637068e-05 -2.520473e-03 +1.695507e-02 +2.533831e-03 -6.139860e-02 +9.380761e-02 +6.263691e-02 -7.160356e-02
48.919438 +5.785568e-02 -6.678363e-02 -3.419820e-02 +1.057698e-01 +1.699044e-02 +2.321374e-03 -7.209016e-04 -2.415298e-03
         -3.419820e-02 +1.057698e-01 +5.785568e-02 -6.678363e-02 -7.209016e-04 -2.415298e-03 +1.699044e-02 +2.321374e-03
         +1.699044e-02 +2.321374e-03 -7.209016e-04 -2.415298e-03 +5.785568e-02 -6.678363e-02 -3.419820e-02 +1.057698e-01
         -7.209016e-04 -2.415298e-03 +1.699044e-02 +2.321374e-03 -3.419820e-02 +1.057698e-01 +5.785568e-02 -6.678363e-02
49.019375 +5.341851e-02 -6.164520e-02 -5.059254e-03 +1.100973e-01 +1.702313e-02 +2.108426e-03 -1.325199e-03 -2.143210e-03
         -5.059254e-03 +1.100973e-01 +5.341851e-02 -6.164520e-02 -1.325199e-03 -2.143210e-03 +1.702313e-02 +2.108426e-03
         +1.702313e-02 +2.108426e-03 -1.325199e-03 -2.143210e-03 +5.341851e-02 -6.164520e-02 -5.059254e-03 +1.100973e-01
         -1.325199e-03 -2.143210e-03 +1.702313e-02 +2.108426e-03 -5.059254e-03 +1.100973e-01 +5.341851e-02 -6.164520e-02
49.119312 +4.934655e-02 -5.621279e-02 +2.393723e-02 +1.066180e-01 +1.705314e-02 +1.895021e-03 -1.837511e-03 -1.723123e-03
         +2.393723e-02 +1.066180e-01 +4.934655e-02 -5.621279e-02 -1.837511e-03 -1.723123e-03 +1.705314e-02 +1.895021e-03
         +1.705314e-02 +1.895021e-03 -1.837511e-03 -1.723123e-03 +4.934655e-02 -5.621279e-02 +2.393723e-02 +1.066180e-01
         -1.837511e-03 -1.723123e-03 +1.705314e-02 +1.895021e-03 +2.393723e-02 +1.066180e-01 +4.934655e-02 -5.621279e-02
49.219250 +4.565924e-02 -5.051230e-02 +5.075677e-02 +9.571120e-02 +1.708045e-02 +1.681194e-03 -2.222476e-03 -1.184170e-03
         +5.075677e-02 +9.571120e-02 +4.565924e-02 -5.051230e-02 -2.222476e-03 -1.184170e-03 +1.708045e-02 +1.681194e-03
         +1.708045e-02 +1.681194e-03 -2.222476e-03 -1.184170e-03 +4.565924e-02 -5.051230e-02 +5.075677e-02 +9.571120e-02
         -2.222476e-03 -1.184170e-03 +1.708045e-02 +1.681194e-03 +5.075677e-02 +9.571120e-02 +4.565924e-02 -5.051230e-02
49.319187 +4.237415e-02 -4.457091e-02 +7.355337e-02 +7.827127e-02 +1.710506e-02 +1.466977e-03 -2.453555e-03 -5.636903e-04
         +7.355337e-02 +7.827127e-02 +4.237415e-02 -4.457091e-02 -2.453555e-03 -5.636903e-04 +1.710506e-02 +1.466977e-03
         +1.710506e-02 +1.466977e-03 -2.453555e-03 -5.636903e-04 +4.237415e-02 -4.457091e-02 +7.355337e-02 +7.827127e-02
         -2.453555e-03 -5.636903e-04 +1.710506e-02 +1.466977e-03 +7.355337e-02 +7.827127e-02 +4.237415e-02 -4.457091e-02
49.419125 +3.950694e-02 -3.841696e-02 +9.079571e-02 +5.563561e-02 +1.712697e-02 +1.252406e-03 -2.514869e-03 +9.536756e-05
         +9.079571e-02 +5.563561e-02 +3.950694e-02 -3.841696e-02 -2.514869e-03 +9.536756e-05 +1.712697e-02 +1.252406e-03
         +1.712697e-02 +1.252406e-03 -2.514869e-03 +9.536756e-05 +3.950694e-02 -3.841696e-02 +9.079571e-02 +5.563561e-02
         -2.514869e-03 +9.536756e-05 +1.712697e-02 +1.252406e-03 +9.079571e-02 +5.563561e-02 +3.950694e-02 -3.841696e-02
49.519062 +3.707131e-02 -3.207980e-02 +1.013690e-01 +2.948311e-02 +1.714616e-02 +1.037516e-03 -2.402287e-03 +7.474127e-04
         +1.013690e-01 +2.948311e-02 +3.707131e-02 -3.207980e-02 -2.402287e-03 +7.474127e-04 +1.714616e-02 +1.037516e-03
         +1.714616e-02 +1.037516e-03 -2.402287e-03 +7.474127e-04 +3.707131e-02 -3.207980e-02 +1.013690e-01 +2.948311e-02
         -2.402287e-03 +7.474127e-04 +1.714616e-02 +1.037516e-03 +1.013690e-01 +2.948311e-02 +3.707131e-02 -3.207980e-02
49.619000 +3.507885e-02 -2.558966e-02 +1.046459e-01 +1.710337e-03 +1.716265e-02 +8.223396e-04 -2.123703e-03 +1.347368e-03
         +1.046459e-01 +1.710337e-03 +3.507885e-02 -2.558966e-02 -2.123703e-03 +1.347368e-03 +1.716265e-02 +8.223396e-04
         +1.716265e-02 +8.223396e-04 -2.123703e-03 +1.347368e-03 +3.507885e-02 -2.558966e-02 +1.046459e-01 +1.710337e-03
         -2.123703e-03 +1.347368e-03 +1.716265e-02 +8.223396e-04 +1.046459e-01 +1.710337e-03 +3.507885e-02 -2.558966e-02
49.718937 +3.353907e-02 -1.897747e-02 +1.005221e-01 -2.570519e-02 +1.717642e-02 +6.069124e-04 -1.698485e-03 +1.853789e-03
         +1.005221e-01 -2.570519e-02 +3.353907e-02 -1.897747e-02 -1.698485e-03 +1.853789e-03 +1.717642e-02 +6.069124e-04
         +1.717642e-02 +6.069124e-04 -1.698485e-03 +1.853789e-03 +3.353907e-02 -1.897747e-02 +1.005221e-01 -2.570519e-02
         -1.698485e-03 +1.853789e-03 +1.717642e-02 +6.069124e-04 +1.005221e-01 -2.570519e-02 +3.353907e-02 -1.897747e-02
49.818875 +3.245931e-02 -1.227478e-02 +8.941417e-02 -5.084512e-02 +1.718746e-02 +3.912686e-04 -1.156128e-03 +2.231723e-03
         +8.941417e-02 -5.084512e-02 +3.245931e-02 -1.227478e-02 -1.156128e-03 +2.231723e-03 +1.718746e-02 +3.912686e-04
         +1.718746e-02 +3.912686e-04 -1.156128e-03 +2.231723e-03 +3.245931e-02 -1.227478e-02 +8.941417e-02 -5.084512e-02
         -1.156128e-03 +2.231723e-03 +1.718746e-02 +3.912686e-04 +8.941417e-02 -5.084512e-02 +3.245931e-02 -1.227478e-02
49.918813 +3.184473e-02 -5.513552e-03 +7.222198e-02 -7.198375e-02 +1.719578e-02 +1.754430e-04 -5.342064e-04 +2.455125e-03
         +7.222198e-02 -7.198375e-02 +3.184473e-02 -5.513552e-03 -5.342064e-04 +2.455125e-03 +1.719578e-02 +1.754430e-04
         +1.719578e-02 +1.754430e-04 -5.342064e-04 +2.455125e-03 +3.184473e-02 -5.513552e-03 +7.222198e-02 -7.198375e-02
         -5.342064e-04 +2.455125e-03 +1.719578e-02 +1.754430e-04 +7.222198e-02 -7.198375e-02 +3.184473e-02 -5.513552e-03
50.018750 +3.169825e-02 +1.273970e-03 +5.025686e-02 -8.770575e-02 +1.720138e-02 -4.052987e-05 +1.242298e-04 +2.508653e-03
         +5.025686e-02 -8.770575e-02 +3.169825e-02 +1.273970e-03 +1.242298e-04 +2.508653e-03 +1.720138e-02 -4.052987e-05
         +1.720138e-02 -4.052987e-05 +1.242298e-04 +2.508653e-03 +3.169825e-02 +1.273970e-03 +5.025686e-02 -8.770575e-02
         +1.242298e-04 +2.508653e-03 +1.720138e-02 -4.052987e-05 +5.025686e-02 -8.770575e-02 +3.169825e-02 +1.273970e-03
50.118688 +3.202058e-02 +8.055418e-03 +2.514283e-02 -9.700013e-02 +1.720424e-02 -2.566154e-04 +7.736336e-04 +2.388721e-03
         +2.514283e-02 -9.700013e-02 +3.202058e-02 +8.055418e-03 +7.736336e-04 +2.388721e-03 +1.720424e-02 -2.566154e-04
         +1.720424e-02 -2.566154e-04 +7.736336e-04 +2.388721e-03 +3.202058e-02 +8.055418e-03 +2.514283e-02 -9.700013e-02
         +7.736336e-04 +2.388721e-03 +1.720424e-02 -2.566154e-04 +2.514283e-02 -9.700013e-02 +3.202058e-02 +8.055418e-03
50.218625 +3.281018e-02 +1.479845e-02 -1.302620e-03 -9.932432e-02 +1.720438e-02 -4.727787e-04 +1.369114e-03 +2.103738e-03
         -1.302620e-03 -9.932432e-02 +3.281018e-02 +1.479845e-02 +1.369114e-03 +2.103738e-03 +1.720438e-02 -4.727787e-04
         +1.720438e-02 -4.727787e-04 +1.369114e-03 +2.103738e-03 +3.281018e-02 +1.479845e-02 -1.302620e-03 -9.932432e-02
         +1.369114e-03 +2.103738e-03 +1.720438e-02 -4.727787e-04 -1.302620e-03 -9.932432e-02 +3.281018e-02 +1.479845e-02
50.318562 +3.406327e-02 +2.147090e-02 -2.719931e-02 -9.463440e-02 +1.720178e-02 -6.889853e-04 +1.869538e-03 +1.673519e-03
         -2.719931e-02 -9.463440e-02 +3.406327e-02 +2.147090e-02 +1.869538e-03 +1.673519e-03 +1.720178e-02 -6.889853e-04
         +1.720178e-02 -6.889853e-04 +1.869538e-03 +1.673519e-03 +3.406327e-02 +2.147090e-02 -2.719931e-02 -9.463440e-02
         +1.869538e-03 +1.673519e-03 +1.720178e-02 -6.889853e-04 -2.719931e-02 -9.463440e-02 +3.406327e-02 +2.147090e-02
50.418500 +3.577389e-02 +2.804097e-02 -5.073734e-02 -8.337988e-02 +1.719644e-02 -9.052002e-04 +2.240374e-03 +1.127908e-03
         -5.073734e-02 -8.337988e-02 +3.577389e-02 +2.804097e-02 +2.240374e-03 +1.127908e-03 +1.719644e-02 -9.052002e-04
         +1.719644e-02 -9.052002e-04 +2.240374e-03 +1.127908e-03 +3.577389e-02 +2.804097e-02 -5.073734e-02 -8.337988e-02
         +2.240374e-03 +1.127908e-03 +1.719644e-02 -9.052002e-04 -5.073734e-02 -8.337988e-02 +3.577389e-02 +2.804097e-02
50.518437 +3.793387e-02 +3.447730e-02 -7.030306e-02 -6.646393e-02 +1.718838e-02 -1.121389e-03 +2.456075e-03 +5.047071e-04
         -7.030306e-02 -6.646393e-02 +3.793387e-02 +3.447730e-02 +2.456075e-03 +5.047071e-04 +1.718838e-02 -1.121389e-03
         +1.718838e-02 -1.121389e-03 +2.456075e-03 +5.047071e-04 +3.793387e-02 +3.447730e-02 -7.030306e-02 -6.646393e-02
         +2.456075e-03 +5.047071e-04 +1.718838e-02 -1.121389e-03 -7.030306e-02 -6.646393e-02 +3.793387e-02 +3.447730e-02
50.618375 +4.053292e-02 +4.074921e-02 -8.458911e-02 -4.517246e-02 +1.717758e-02 -1.337516e-03 +2.501837e-03 -1.529444e-04
         -8.458911e-02 -4.517246e-02 +4.053292e-02 +4.074921e-02 +2.501837e-03 -1.529444e-04 +1.717758e-02 -1.337516e-03
         +1.717758e-02 -1.337516e-03 +2.501837e-03 -1.529444e-04 +4.053292e-02 +4.074921e-02 -8.458911e-02 -4.517246e-02
         +2.501837e-03 -1.529444e-04 +1.717758e-02 -1.337516e-03 -8.458911e-02 -4.517246e-02 +4.053292e-02 +4.074921e-02
50.718312 +4.355864e-02 +4.682679e-02 -9.268132e-02 -2.107755e-02 +1.716404e-02 -1.553548e-03 +2.374616e-03 -7.995550e-04
         -9.268132e-02 -2.107755e-02 +4.355864e-02 +4.682679e-02 +2.374616e-03 -7.995550e-04 +1.716404e-02 -1.553548e-03
         +1.716404e-02 -1.553548e-03 +2.374616e-03 -7.995550e-04 +4.355864e-02 +4.682679e-02 -9.268132e-02 -2.107755e-02
         +2.374616e-03 -7.995550e-04 +1.716404e-02 -1.553548e-03 -9.268132e-02 -2.107755e-02 +4.355864e-02 +4.682679e-02
50.818250 +4.699660e-02 +5.268104e-02 -9.411659e-02 +4.077824e-03 +1.714777e-02 -1.769448e-03 +2.083332e-03 -1.390429e-03
         -9.411659e-02 +4.077824e-03 +4.699660e-02 +5.268104e-02 +2.083332e-03 -1.390429e-03 +1.714777e-02 -1.769448e-03
         +1.714777e-02 -1.769448e-03 +2.083332e-03 -1.390429e-03 +4.699660e-02 +5.268104e-02 -9.411659e-02 +4.077824e-03
         +2.083332e-03 -1.390429e-03 +1.714777e-02 -1.769448e-03 -9.411659e-02 +4.077824e-03 +4.699660e-02 +5.268104e-02
50.918188 +5.083041e-02 +5.828406e-02 -8.890811e-02 +2.850518e-02 +1.712877e-02 -1.985184e-03 +1.648241e-03 -1.884757e-03
         -8.890811e-02 +2.850518e-02 +5.083041e-02 +5.828406e-02 +1.648241e-03 -1.884757e-03 +1.712877e-02 -1.985184e-03
         +1.712877e-02 -1.985184e-03 +1.648241e-03 -1.884757e-03 +5.083041e-02 +5.828406e-02 -8.890811e-02 +2.850518e-02
         +1.648241e-03 -1.884757e-03 +1.712877e-02 -1.985184e-03 -8.890811e-02 +2.850518e-02 +5.083041e-02 +5.828406e-02
51.018125 +5.504178e-02 +6.360913e-02 -7.753681e-02 +5.049718e-02 +1.710704e-02 -2.200719e-03 +1.099527e-03 -2.248434e-03
         -7.753681e-02 +5.049718e-02 +5.504178e-02 +6.360913e-02 +1.099527e-03 -2.248434e-03 +1.710704e-02 -2.200719e-03
         +1.710704e-02 -2.200719e-03 +1.099527e-03 -2.248434e-03 +5.504178e-02 +6.360913e-02 -7.753681e-02 +5.049718e-02
         +1.099527e-03 -2.248434e-03 +1.710704e-02 -2.200719e-03 -7.753681e-02 +5.049718e-02 +5.504178e-02 +6.360913e-02
51.118063 +5.961062e-02 +6.863084e-02 -6.090988e-02 +6.854663e-02 +1.708258e-02 -2.416019e-03 +4.752075e-04 -2.456413e-03
         -6.090988e-02 +6.854663e-02 +5.961062e-02 +6.863084e-02 +4.752075e-04 -2.456413e-03 +1.708258e-02 -2.416019e-03
         +1.708258e-02 -2.416019e-03 +4.752075e-04 -2.456413e-03 +5.961062e-02 +6.863084e-02 -6.090988e-02 +6.854663e-02
         +4.752075e-04 -2.456413e-03 +1.708258e-02 -2.416019e-03 -6.090988e-02 +6.854663e-02 +5.961062e-02 +6.863084e-02
51.218000 +6.451516e-02 +7.332525e-02 -4.028998e-02 +8.144956e-02 +1.705540e-02 -2.631049e-03 -1.814989e-04 -2.494431e-03
         -4.028998e-02 +8.144956e-02 +6.451516e-02 +7.332525e-02 -1.814989e-04 -2.494431e-03 +1.705540e-02 -2.631049e-03
         +1.705540e-02 -2.631049e-03 -1.814989e-04 -2.494431e-03 +6.451516e-02 +7.332525e-02 -4.028998e-02 +8.144956e-02
         -1.814989e-04 -2.494431e-03 +1.705540e-02 -2.631049e-03 -4.028998e-02 +8.144956e-02 +6.451516e-02 +7.332525e-02
51.317937 +6.973199e-02 +7.766996e-02 -1.720040e-02 +8.838532e-02 +1.702549e-02 -2.845776e-03 -8.251677e-04 -2.359986e-03
         -1.720040e-02 +8.838532e-02 +6.973199e-02 +7.766996e-02 -8.251677e-04 -2.359986e-03 +1.702549e-02 -2.845776e-03
         +1.702549e-02 -2.845776e-03 -8.251677e-04 -2.359986e-03 +6.973199e-02 +7.766996e-02 -1.720040e-02 +8.838532e-02
         -8.251677e-04 -2.359986e-03 +1.702549e-02 -2.845776e-03 -1.720040e-02 +8.838532e-02 +6.973199e-02 +7.766996e-02
51.417875 +7.523624e-02 +8.164427e-02 +6.686658e-03 +8.896844e-02 +1.699286e-02 -3.060163e-03 -1.411310e-03 -2.062502e-03
         +6.686658e-03 +8.896844e-02 +7.523624e-02 +8.164427e-02 -1.411310e-03 -2.062502e-03 +1.699286e-02 -3.060163e-03
         +1.699286e-02 -3.060163e-03 -1.411310e-03 -2.062502e-03 +7.523624e-02 +8.164427e-02 +6.686658e-03 +8.896844e-02
         -1.411310e-03 -2.062502e-03 +1.699286e-02 -3.060163e-03 +6.686658e-03 +8.896844e-02 +7.523624e-02 +8.164427e-02
51.517812 +8.100167e-02 +8.522922e-02 +2.967079e-02 +8.326889e-02 +1.695752e-02 -3.274176e-03 -1.899447e-03 -1.622668e-03
         +2.967079e-02 +8.326889e-02 +8.100167e-02 +8.522922e-02 -1.899447e-03 -1.622668e-03 +1.695752e-02 -3.274176e-03
         +1.695752e-02 -3.274176e-03 -1.899447e-03 -1.622668e-03 +8.100167e-02 +8.522922e-02 +2.967079e-02 +8.326889e-02
         -1.899447e-03 -1.622668e-03 +1.695752e-02 -3.274176e-03 +2.967079e-02 +8.326889e-02 +8.100167e-02 +8.522922e-02
51.617750 +8.700076e-02 +8.840770e-02 +5.014412e-02 +7.179983e-02 +1.691947e-02 -3.487781e-03 -2.255907e-03 -1.071000e-03
         +5.014412e-02 +7.179983e-02 +8.700076e-02 +8.840770e-02 -2.255907e-03 -1.071000e-03 +1.691947e-02 -3.487781e-03
         +1.691947e-02 -3.487781e-03 -2.255907e-03 -1.071000e-03 +8.700076e-02 +8.840770e-02 +5.014412e-02 +7.179983e-02
         -2.255907e-03 -1.071000e-03 +1.691947e-02 -3.487781e-03 +5.014412e-02 +7.179983e-02 +8.700076e-02 +8.840770e-02
51.717687 +9.320492e-02 +9.116457e-02 +6.670378e-02 +5.547417e-02 +1.687871e-02 -3.700944e-03 -2.456148e-03 -4.457223e-04
         +6.670378e-02 +5.547417e-02 +9.320492e-02 +9.116457e-02 -2.456148e-03 -4.457223e-04 +1.687871e-02 -3.700944e-03
         +1.687871e-02 -3.700944e-03 -2.456148e-03 -4.457223e-04 +9.320492e-02 +9.116457e-02 +6.670378e-02 +5.547417e-02
         -2.456148e-03 -4.457223e-04 +1.687871e-02 -3.700944e-03 +6.670378e-02 +5.547417e-02 +9.320492e-02 +9.116457e-02
51.817625 +9.958456e-02 +9.348667e-02 +7.824808e-02 +3.553335e-02 +1.683525e-02 -3.913629e-03 -2.486448e-03 +2.098811e-04
         +7.824808e-02 +3.553335e-02 +9.958456e-02 +9.348667e-02 -2.486448e-03 +2.098811e-04 +1.683525e-02 -3.913629e-03
         +1.683525e-02 -3.913629e-03 -2.486448e-03 +2.098811e-04 +9.958456e-02 +9.348667e-02 +7.824808e-02 +3.553335e-02
         -2.486448e-03 +2.098811e-04 +1.683525e-02 -3.913629e-03 +7.824808e-02 +3.553335e-02 +9.958456e-02 +9.348667e-02
51.917563 +1.061092e-01 +9.536293e-02 +8.404988e-02 +1.345388e-02 +1.678910e-02 -4.125803e-03 -2.344845e-03 +8.504632e-04
         +8.404988e-02 +1.345388e-02 +1.061092e-01 +9.536293e-02 -2.344845e-03 +8.504632e-04 +1.678910e-02 -4.125803e-03
         +1.678910e-02 -4.125803e-03 -2.344845e-03 +8.504632e-04 +1.061092e-01 +9.536293e-02 +8.404988e-02 +1.345388e-02
         -2.344845e-03 +8.504632e-04 +1.678910e-02 -4.125803e-03 +8.404988e-02 +1.345388e-02 +1.061092e-01 +9.536293e-02
52.017500 +1.127479e-01 +9.678440e-02 +8.380219e-02 -9.161443e-03 +1.674026e-02 -4.337431e-03 -2.041262e-03 +1.431751e-03
         +8.380219e-02 -9.161443e-03 +1.127479e-01 +9.678440e-02 -2.041262e-03 +1.431751e-03 +1.674026e-02 -4.337431e-03
         +1.674026e-02 -4.337431e-03 -2.041262e-03 +1.431751e-03 +1.127479e-01 +9.678440e-02 +8.380219e-02 -9.161443e-03
         -2.041262e-03 +1.431751e-03 +1.674026e-02 -4.337431e-03 +8.380219e-02 -9.161443e-03 +1.127479e-01 +9.678440e-02
52.117438 +1.194688e-01 +9.774431e-02 +7.763311e-02 -3.069963e-02 +1.668873e-02 -4.548478e-03 -1.596816e-03 +1.913606e-03
         +7.763311e-02 -3.069963e-02 +1.194688e-01 +9.774431e-02 -1.596816e-03 +1.913606e-03 +1.668873e-02 -4.548478e-03
         +1.668873e-02 -4.548478e-03 -1.596816e-03 +1.913606e-03 +1.194688e-01 +9.774431e-02 +7.763311e-02 -3.069963e-02
         -1.596816e-03 +1.913606e-03 +1.668873e-02 -4.548478e-03 +7.763311e-02 -3.069963e-02 +1.194688e-01 +9.774431e-02
52.217375 +1.262399e-01 +9.823807e-02 +6.608957e-02 -4.965265e-02 +1.663453e-02 -4.758912e-03 -1.042344e-03 +2.262796e-03
         +6.608957e-02 -4.965265e-02 +1.262399e-01 +9.823807e-02 -1.042344e-03 +2.262796e-03 +1.663453e-02 -4.758912e-03
         +1.663453e-02 -4.758912e-03 -1.042344e-03 +2.262796e-03 +1.262399e-01 +9.823807e-02 +6.608957e-02 -4.965265e-02
         -1.042344e-03 +2.262796e-03 +1.663453e-02 -4.758912e-03 +6.608957e-02 -4.965265e-02 +1.262399e-01 +9.823807e-02
52.317312 +1.330290e-01 +9.826333e-02 +5.009131e-02 -6.472322e-02 +1.657767e-02 -4.968697e-03 -4.162659e-04 +2.455287e-03
         +5.009131e-02 -6.472322e-02 +1.330290e-01 +9.826333e-02 -4.162659e-04 +2.455287e-03 +1.657767e-02 -4.968697e-03
         +1.657767e-02 -4.968697e-03 -4.162659e-04 +2.455287e-03 +1.330290e-01 +9.826333e-02 +5.009131e-02 -6.472322e-02
         -4.162659e-04 +2.455287e-03 +1.657767e-02 -4.968697e-03 +5.009131e-02 -6.472322e-02 +1.330290e-01 +9.826333e-02
52.417250 +1.398036e-01 +9.781997e-02 +3.085894e-02 -7.491392e-02 +1.651814e-02 -5.177800e-03 +2.380795e-04 +2.477899e-03
         +3.085894e-02 -7.491392e-02 +1.398036e-01 +9.781997e-02 +2.380795e-04 +2.477899e-03 +1.651814e-02 -5.177800e-03
         +1.651814e-02 -5.177800e-03 +2.380795e-04 +2.477899e-03 +1.398036e-01 +9.781997e-02 +3.085894e-02 -7.491392e-02
         +2.380795e-04 +2.477899e-03 +1.651814e-02 -5.177800e-03 +3.085894e-02 -7.491392e-02 +1.398036e-01 +9.781997e-02
52.517187 +1.465314e-01 +9.691010e-02 +9.821525e-03 -7.959343e-02 +1.645596e-02 -5.386187e-03 +8.754332e-04 +2.329207e-03
         +9.821525e-03 -7.959343e-02 +1.465314e-01 +9.691010e-02 +8.754332e-04 +2.329207e-03 +1.645596e-02 -5.386187e-03
         +1.645596e-02 -5.386187e-03 +8.754332e-04 +2.329207e-03 +1.465314e-01 +9.691010e-02 +9.821525e-03 -7.959343e-02
         +8.754332e-04 +2.329207e-03 +1.645596e-02 -5.386187e-03 +9.821525e-03 -7.959343e-02 +1.465314e-01 +9.691010e-02
52.617125 +1.531804e-01 +9.553807e-02 -1.148929e-02 -7.853540e-02 +1.639113e-02 -5.593824e-03 +1.451749e-03 +2.019630e-03
         -1.148929e-02 -7.853540e-02 +1.531804e-01 +9.553807e-02 +1.451749e-03 +2.019630e-03 +1.639113e-02 -5.593824e-03
         +1.639113e-02 -5.593824e-03 +1.451749e-03 +2.019630e-03 +1.531804e-01 +9.553807e-02 -1.148929e-02 -7.853540e-02
         +1.451749e-03 +2.019630e-03 +1.639113e-02 -5.593824e-03 -1.148929e-02 -7.853540e-02 +1.531804e-01 +9.553807e-02
52.717062 +1.597189e-01 +9.371042e-02 -3.155090e-02 -7.192764e-02 +1.632368e-02 -5.800677e-03 +1.927235e-03 +1.570703e-03
         -3.155090e-02 -7.192764e-02 +1.597189e-01 +9.371042e-02 +1.927235e-03 +1.570703e-03 +1.632368e-02 -5.800677e-03
         +1.632368e-02 -5.800677e-03 +1.927235e-03 +1.570703e-03 +1.597189e-01 +9.371042e-02 -3.155090e-02 -7.192764e-02
         +1.927235e-03 +1.570703e-03 +1.632368e-02 -5.800677e-03 -3.155090e-02 -7.192764e-02 +1.597189e-01 +9.371042e-02
52.817000 +1.661157e-01 +9.143586e-02 -4.895880e-02 -6.035126e-02 +1.625360e-02 -6.006713e-03 +2.269105e-03 +1.013575e-03
         -4.895880e-02 -6.035126e-02 +1.661157e-01 +9.143586e-02 +2.269105e-03 +1.013575e-03 +1.625360e-02 -6.006713e-03
         +1.625360e-02 -6.006713e-03 +2.269105e-03 +1.013575e-03 +1.661157e-01 +9.143586e-02 -4.895880e-02 -6.035126e-02
         +2.269105e-03 +1.013575e-03 +1.625360e-02 -6.006713e-03 -4.895880e-02 -6.035126e-02 +1.661157e-01 +9.143586e-02
52.916938 +1.723402e-01 +8.872524e-02 -6.252543e-02 -4.473185e-02 +1.618090e-02 -6.211898e-03 +2.453838e-03 +3.868522e-04
         -6.252543e-02 -4.473185e-02 +1.723402e-01 +8.872524e-02 +2.453838e-03 +3.868522e-04 +1.618090e-02 -6.211898e-03
         +1.618090e-02 -6.211898e-03 +2.453838e-03 +3.868522e-04 +1.723402e-01 +8.872524e-02 -6.252543e-02 -4.473185e-02
         +2.453838e-03 +3.868522e-04 +1.618090e-02 -6.211898e-03 -6.252543e-02 -4.473185e-02 +1.723402e-01 +8.872524e-02
53.016875 +1.783627e-01 +8.559148e-02 -7.136159e-02 -2.626662e-02 +1.610560e-02 -6.416199e-03 +2.468795e-03 -2.660827e-04
         -7.136159e-02 -2.626662e-02 +1.783627e-01 +8.559148e-02 +2.468795e-03 -2.660827e-04 +1.610560e-02 -6.416199e-03
         +1.610560e-02 -6.416199e-03 +2.468795e-03 -2.660827e-04 +1.783627e-01 +8.559148e-02 -7.136159e-02 -2.626662e-02
         +2.468795e-03 -2.660827e-04 +1.610560e-02 -6.416199e-03 -7.136159e-02 -2.626662e-02 +1.783627e-01 +8.559148e-02
53.116813 +1.841547e-01 +8.204954e-02 -7.493494e-02 -6.333038e-03 +1.602771e-02 -6.619583e-03 +2.313086e-03 -9.000701e-04
         -7.493494e-02 -6.333038e-03 +1.841547e-01 +8.204954e-02 +2.313086e-03 -9.000701e-04 +1.602771e-02 -6.619583e-03
         +1.602771e-02 -6.619583e-03 +2.313086e-03 -9.000701e-04 +1.841547e-01 +8.204954e-02 -7.493494e-02 -6.333038e-03
         +2.313086e-03 -9.000701e-04 +1.602771e-02 -6.619583e-03 -7.493494e-02 -6.333038e-03 +1.841547e-01 +8.204954e-02
53.216750 +1.896884e-01 +7.811630e-02 -7.310159e-02 +1.361383e-02 +1.594724e-02 -6.822017e-03 +1.997620e-03 -1.471299e-03
         -7.310159e-02 +1.361383e-02 +1.896884e-01 +7.811630e-02 +1.997620e-03 -1.471299e-03 +1.594724e-02 -6.822017e-03
         +1.594724e-02 -6.822017e-03 +1.997620e-03 -1.471299e-03 +1.896884e-01 +7.811630e-02 -7.310159e-02 +1.361383e-02
         +1.997620e-03 -1.471299e-03 +1.594724e-02 -6.822017e-03 -7.310159e-02 +1.361383e-02 +1.896884e-01 +7.811630e-02
53.316687 +1.949374e-01 +7.381053e-02 -6.610896e-02 +3.214791e-02 +1.586419e-02 -7.023468e-03 +1.544343e-03 -1.940334e-03
         -6.610896e-02 +3.214791e-02 +1.949374e-01 +7.381053e-02 +1.544343e-03 -1.940334e-03 +1.586419e-02 -7.023468e-03
         +1.586419e-02 -7.023468e-03 +1.544343e-03 -1.940334e-03 +1.949374e-01 +7.381053e-02 -6.610896e-02 +3.214791e-02
         +1.544343e-03 -1.940334e-03 +1.586419e-02 -7.023468e-03 -6.610896e-02 +3.214791e-02 +1.949374e-01 +7.381053e-02
53.416625 +1.998767e-01 +6.915275e-02 -5.457020e-02 +4.797456e-02 +1.577859e-02 -7.223903e-03 +9.847084e-04 -2.274841e-03
         -5.457020e-02 +4.797456e-02 +1.998767e-01 +6.915275e-02 +9.847084e-04 -2.274841e-03 +1.577859e-02 -7.223903e-03
         +1.577859e-02 -7.223903e-03 +9.847084e-04 -2.274841e-03 +1.998767e-01 +6.915275e-02 -5.457020e-02 +4.797456e-02
         +9.847084e-04 -2.274841e-03 +1.577859e-02 -7.223903e-03 -5.457020e-02 +4.797456e-02 +1.998767e-01 +6.915275e-02
53.516562 +2.044828e-01 +6.416517e-02 -3.941238e-02 +6.002159e-02 +1.569044e-02 -7.423289e-03 +3.574948e-04 -2.451811e-03
         -3.941238e-02 +6.002159e-02 +2.044828e-01 +6.416517e-02 +3.574948e-04 -2.451811e-03 +1.569044e-02 -7.423289e-03
         +1.569044e-02 -7.423289e-03 +3.574948e-04 -2.451811e-03 +2.044828e-01 +6.416517e-02 -3.941238e-02 +6.002159e-02
         +3.574948e-04 -2.451811e-03 +1.569044e-02 -7.423289e-03 -3.941238e-02 +6.002159e-02 +2.044828e-01 +6.416517e-02
53.616500 +2.087337e-01 +5.887160e-02 -2.180295e-02 +6.751229e-02 +1.559977e-02 -7.621595e-03 -2.938800e-04 -2.459149e-03
         -2.180295e-02 +6.751229e-02 +2.087337e-01 +5.887160e-02 -2.938800e-04 -2.459149e-03 +1.559977e-02 -7.621595e-03
         +1.559977e-02 -7.621595e-03 -2.938800e-04 -2.459149e-03 +2.087337e-01 +5.887160e-02 -2.180295e-02 +6.751229e-02
         -2.938800e-04 -2.459149e-03 +1.559977e-02 -7.621595e-03 -2.180295e-02 +6.751229e-02 +2.087337e-01 +5.887160e-02
53.716437 +2.126091e-01 +5.329726e-02 -3.060036e-03 +7.001547e-02 +1.550657e-02 -7.818787e-03 -9.243662e-04 -2.296497e-03
         -3.060036e-03 +7.001547e-02 +2.126091e-01 +5.329726e-02 -9.243662e-04 -2.296497e-03 +1.550657e-02 -7.818787e-03
         +1.550657e-02 -7.818787e-03 -9.243662e-04 -2.296497e-03 +2.126091e-01 +5.329726e-02 -3.060036e-03 +7.001547e-02
         -9.243662e-04 -2.296497e-03 +1.550657e-02 -7.818787e-03 -3.060036e-03 +7.001547e-02 +2.126091e-01 +5.329726e-02
53.816375 +2.160905e-01 +4.746875e-02 +1.544644e-02 +6.746930e-02 +1.541086e-02 -8.014835e-03 -1.490398e-03 -1.975249e-03
         +1.544644e-02 +6.746930e-02 +2.160905e-01 +4.746875e-02 -1.490398e-03 -1.975249e-03 +1.541086e-02 -8.014835e-03
         +1.541086e-02 -8.014835e-03 -1.490398e-03 -1.975249e-03 +2.160905e-01 +4.746875e-02 +1.544644e-02 +6.746930e-02
         -1.490398e-03 -1.975249e-03 +1.541086e-02 -8.014835e-03 +1.544644e-02 +6.746930e-02 +2.160905e-01 +4.746875e-02
53.916313 +2.191614e-01 +4.141386e-02 +3.239535e-02 +6.017765e-02 +1.531267e-02 -8.209704e-03 -1.952904e-03 -1.517753e-03
         +3.239535e-02 +6.017765e-02 +2.191614e-01 +4.141386e-02 -1.952904e-03 -1.517753e-03 +1.531267e-02 -8.209704e-03
         +1.531267e-02 -8.209704e-03 -1.952904e-03 -1.517753e-03 +2.191614e-01 +4.141386e-02 +3.239535e-02 +6.017765e-02
         -1.952904e-03 -1.517753e-03 +1.531267e-02 -8.209704e-03 +3.239535e-02 +6.017765e-02 +2.191614e-01 +4.141386e-02
54.016250 +2.218070e-01 +3.516146e-02 +4.660925e-02 +4.877970e-02 +1.521200e-02 -8.403365e-03 -2.280006e-03 -9.557582e-04
         +4.660925e-02 +4.877970e-02 +2.218070e-01 +3.516146e-02 -2.280006e-03 -9.557582e-04 +1.521200e-02 -8.403365e-03
         +1.521200e-02 -8.403365e-03 -2.280006e-03 -9.557582e-04 +2.218070e-01 +3.516146e-02 +4.660925e-02 +4.877970e-02
         -2.280006e-03 -9.557582e-04 +1.521200e-02 -8.403365e-03 +4.660925e-02 +4.877970e-02 +2.218070e-01 +3.516146e-02
54.116188 +2.240148e-01 +2.874138e-02 +5.713665e-02 +3.419576e-02 +1.510887e-02 -8.595785e-03 -2.449213e-03 -3.282067e-04
         +5.713665e-02 +3.419576e-02 +2.240148e-01 +2.874138e-02 -2.449213e-03 -3.282067e-04 +1.510887e-02 -8.595785e-03
         +1.510887e-02 -8.595785e-03 -2.449213e-03 -3.282067e-04 +2.240148e-01 +2.874138e-02 +5.713665e-02 +3.419576e-02
         -2.449213e-03 -3.282067e-04 +1.510887e-02 -8.595785e-03 +5.713665e-02 +3.419576e-02 +2.240148e-01 +2.874138e-02
54.216125 +2.257743e-01 +2.218423e-02 +6.331595e-02 +1.755358e-02 +1.500329e-02 -8.786934e-03 -2.448971e-03 +3.214609e-04
         +6.331595e-02 +1.755358e-02 +2.257743e-01 +2.218423e-02 -2.448971e-03 +3.214609e-04 +1.500329e-02 -8.786934e-03
         +1.500329e-02 -8.786934e-03 -2.448971e-03 +3.214609e-04 +2.257743e-01 +2.218423e-02 +6.331595e-02 +1.755358e-02
         -2.448971e-03 +3.214609e-04 +1.500329e-02 -8.786934e-03 +6.331595e-02 +1.755358e-02 +2.257743e-01 +2.218423e-02
54.316062 +2.270770e-01 +1.552128e-02 +6.481649e-02 +1.012732e-04 +1.489528e-02 -8.976779e-03 -2.279453e-03 +9.483148e-04
         +6.481649e-02 +1.012732e-04 +2.270770e-01 +1.552128e-02 -2.279453e-03 +9.483148e-04 +1.489528e-02 -8.976779e-03
         +1.489528e-02 -8.976779e-03 -2.279453e-03 +9.483148e-04 +2.270770e-01 +1.552128e-02 +6.481649e-02 +1.012732e-04
         -2.279453e-03 +9.483148e-04 +1.489528e-02 -8.976779e-03 +6.481649e-02 +1.012732e-04 +2.270770e-01 +1.552128e-02
54.416000 +2.279168e-01 +8.784316e-03 +6.165450e-02 -1.688666e-02 +1.478486e-02 -9.165289e-03 -1.952530e-03 +1.509043e-03
         +6.165450e-02 -1.688666e-02 +2.279168e-01 +8.784316e-03 -1.952530e-03 +1.509043e-03 +1.478486e-02 -9.165289e-03
         +1.478486e-02 -9.165289e-03 -1.952530e-03 +1.509043e-03 +2.279168e-01 +8.784316e-03 +6.165450e-02 -1.688666e-02
         -1.952530e-03 +1.509043e-03 +1.478486e-02 -9.165289e-03 +6.165450e-02 -1.688666e-02 +2.279168e-01 +8.784316e-03
54.515937 +2.282895e-01 +2.005455e-03 +5.418299e-02 -3.220287e-02 +1.467205e-02 -9.352435e-03 -1.490948e-03 +1.964946e-03
         +5.418299e-02 -3.220287e-02 +2.282895e-01 +2.005455e-03 -1.490948e-03 +1.964946e-03 +1.467205e-02 -9.352435e-03
         +1.467205e-02 -9.352435e-03 -1.490948e-03 +1.964946e-03 +2.282895e-01 +2.005455e-03 +5.418299e-02 -3.220287e-02
         -1.490948e-03 +1.964946e-03 +1.467205e-02 -9.352435e-03 +5.418299e-02 -3.220287e-02 +2.282895e-01 +2.005455e-03
54.615875 +2.281936e-01 -4.782969e-03 +4.305734e-02 -4.479344e-02 +1.455685e-02 -9.538185e-03 -9.267395e-04 +2.284606e-03
         +4.305734e-02 -4.479344e-02 +2.281936e-01 -4.782969e-03 -9.267395e-04 +2.284606e-03 +1.455685e-02 -9.538185e-03
         +1.455685e-02 -9.538185e-03 -9.267395e-04 +2.284606e-03 +2.281936e-01 -4.782969e-03 +4.305734e-02 -4.479344e-02
         -9.267395e-04 +2.284606e-03 +1.455685e-02 -9.538185e-03 +4.305734e-02 -4.479344e-02 +2.281936e-01 -4.782969e-03
54.715812 +2.276293e-01 -1.154858e-02 +2.917931e-02 -5.383067e-02 +1.443929e-02 -9.722510e-03 -2.990007e-04 +2.446052e-03
         +2.917931e-02 -5.383067e-02 +2.276293e-01 -1.154858e-02 -2.990007e-04 +2.446052e-03 +1.443929e-02 -9.722510e-03
         +1.443929e-02 -9.722510e-03 -2.990007e-04 +2.446052e-03 +2.276293e-01 -1.154858e-02 +2.917931e-02 -5.383067e-02
         -2.990007e-04 +2.446052e-03 +1.443929e-02 -9.722510e-03 +2.917931e-02 -5.383067e-02 +2.276293e-01 -1.154858e-02
54.815750 +2.265995e-01 -1.825912e-02 +1.362462e-02 -5.876731e-02 +1.431938e-02 -9.905378e-03 +3.488154e-04 +2.438274e-03
         +1.362462e-02 -5.876731e-02 +2.265995e-01 -1.825912e-02 +3.488154e-04 +2.438274e-03 +1.431938e-02 -9.905378e-03
         +1.431938e-02 -9.905378e-03 +3.488154e-04 +2.438274e-03 +2.265995e-01 -1.825912e-02 +1.362462e-02 -5.876731e-02
         +3.488154e-04 +2.438274e-03 +1.431938e-02 -9.905378e-03 +1.362462e-02 -5.876731e-02 +2.265995e-01 -1.825912e-02
54.915688 +2.251090e-01 -2.488258e-02 -2.440519e-03 -5.936865e-02 +1.419715e-02 -1.008676e-02 +9.719089e-04 +2.261967e-03
         -2.440519e-03 -5.936865e-02 +2.251090e-01 -2.488258e-02 +9.719089e-04 +2.261967e-03 +1.419715e-02 -1.008676e-02
         +1.419715e-02 -1.008676e-02 +9.719089e-04 +2.261967e-03 +2.251090e-01 -2.488258e-02 -2.440519e-03 -5.936865e-02
         +9.719089e-04 +2.261967e-03 +1.419715e-02 -1.008676e-02 -2.440519e-03 -5.936865e-02 +2.251090e-01 -2.488258e-02
55.015625 +2.231648e-01 -3.138738e-02 -1.784706e-02 -5.572070e-02 +1.407261e-02 -1.026663e-02 +1.527232e-03 +1.929480e-03
         -1.784706e-02 -5.572070e-02 +2.231648e-01 -3.138738e-02 +1.527232e-03 +1.929480e-03 +1.407261e-02 -1.026663e-02
         +1.407261e-02 -1.026663e-02 +1.527232e-03 +1.929480e-03 +2.231648e-01 -3.138738e-02 -1.784706e-02 -5.572070e-02
         +1.527232e-03 +1.929480e-03 +1.407261e-02 -1.026663e-02 -1.784706e-02 -5.572070e-02 +2.231648e-01 -3.138738e-02
55.115563 +2.207764e-01 -3.774249e-02 -3.150861e-02 -4.821457e-02 +1.394578e-02 -1.044495e-02 +1.976461e-03 +1.463944e-03
         -3.150861e-02 -4.821457e-02 +2.207764e-01 -3.774249e-02 +1.976461e-03 +1.463944e-03 +1.394578e-02 -1.044495e-02
         +1.394578e-02 -1.044495e-02 +1.976461e-03 +1.463944e-03 +2.207764e-01 -3.774249e-02 -3.150861e-02 -4.821457e-02
         +1.976461e-03 +1.463944e-03 +1.394578e-02 -1.044495e-02 -3.150861e-02 -4.821457e-02 +2.207764e-01 -3.774249e-02
55.215500 +2.179551e-01 -4.391760e-02 -4.249823e-02 -3.750877e-02 +1.381668e-02 -1.062169e-02 +2.288646e-03 +8.976664e-04
         -4.249823e-02 -3.750877e-02 +2.179551e-01 -4.391760e-02 +2.288646e-03 +8.976664e-04 +1.381668e-02 -1.062169e-02
         +1.381668e-02 -1.062169e-02 +2.288646e-03 +8.976664e-04 +2.179551e-01 -4.391760e-02 -4.249823e-02 -3.750877e-02
         +2.288646e-03 +8.976664e-04 +1.381668e-02 -1.062169e-02 -4.249823e-02 -3.750877e-02 +2.179551e-01 -4.391760e-02
55.315437 +2.147143e-01 -4.988327e-02 -5.011131e-02 -2.447291e-02 +1.368533e-02 -1.079684e-02 +2.442338e-03 +2.698891e-04
         -5.011131e-02 -2.447291e-02 +2.147143e-01 -4.988327e-02 +2.442338e-03 +2.698891e-04 +1.368533e-02 -1.079684e-02
         +1.368533e-02 -1.079684e-02 +2.442338e-03 +2.698891e-04 +2.147143e-01 -4.988327e-02 -5.011131e-02 -2.447291e-02
         +2.442338e-03 +2.698891e-04 +1.368533e-02 -1.079684e-02 -5.011131e-02 -2.447291e-02 +2.147143e-01 -4.988327e-02
55.415375 +2.110695e-01 -5.561105e-02 -5.391003e-02 -1.011768e-02 +1.355175e-02 -1.097035e-02 +2.427068e-03 -3.759338e-04
         -5.391003e-02 -1.011768e-02 +2.110695e-01 -5.561105e-02 +2.427068e-03 -3.759338e-04 +1.355175e-02 -1.097035e-02
         +1.355175e-02 -1.097035e-02 +2.427068e-03 -3.759338e-04 +2.110695e-01 -5.561105e-02 -5.391003e-02 -1.011768e-02
         +2.427068e-03 -3.759338e-04 +1.355175e-02 -1.097035e-02 -5.391003e-02 -1.011768e-02 +2.110695e-01 -5.561105e-02
55.515313 +2.070381e-01 -6.107361e-02 -5.374684e-02 +4.483490e-03 +1.341596e-02 -1.114220e-02 +2.244054e-03 -9.951425e-04
         -5.374684e-02 +4.483490e-03 +2.070381e-01 -6.107361e-02 +2.244054e-03 -9.951425e-04 +1.341596e-02 -1.114220e-02
         +1.341596e-02 -1.114220e-02 +2.244054e-03 -9.951425e-04 +2.070381e-01 -6.107361e-02 -5.374684e-02 +4.483490e-03
         +2.244054e-03 -9.951425e-04 +1.341596e-02 -1.114220e-02 -5.374684e-02 +4.483490e-03 +2.070381e-01 -6.107361e-02
55.615250 +2.026393e-01 -6.624491e-02 -4.976577e-02 +1.827484e-02 +1.327798e-02 -1.131236e-02 +1.906112e-03 -1.544961e-03
         -4.976577e-02 +1.827484e-02 +2.026393e-01 -6.624491e-02 +1.906112e-03 -1.544961e-03 +1.327798e-02 -1.131236e-02
         +1.327798e-02 -1.131236e-02 +1.906112e-03 -1.544961e-03 +2.026393e-01 -6.624491e-02 -4.976577e-02 +1.827484e-02
         +1.906112e-03 -1.544961e-03 +1.327798e-02 -1.131236e-02 -4.976577e-02 +1.827484e-02 +2.026393e-01 -6.624491e-02
55.715187 +1.978941e-01 -7.110029e-02 -4.238227e-02 +3.029477e-02 +1.313784e-02 -1.148081e-02 +1.436753e-03 -1.987450e-03
         -4.238227e-02 +3.029477e-02 +1.978941e-01 -7.110029e-02 +1.436753e-03 -1.987450e-03 +1.313784e-02 -1.148081e-02
         +1.313784e-02 -1.148081e-02 +1.436753e-03 -1.987450e-03 +1.978941e-01 -7.110029e-02 -4.238227e-02 +3.029477e-02
         +1.436753e-03 -1.987450e-03 +1.313784e-02 -1.148081e-02 -4.238227e-02 +3.029477e-02 +1.978941e-01 -7.110029e-02
55.815125 +1.928250e-01 -7.561659e-02 -3.224362e-02 +3.974280e-02 +1.299554e-02 -1.164751e-02 +8.685528e-04 -2.292131e-03
         -3.224362e-02 +3.974280e-02 +1.928250e-01 -7.561659e-02 +8.685528e-04 -2.292131e-03 +1.299554e-02 -1.164751e-02
         +1.299554e-02 -1.164751e-02 +8.685528e-04 -2.292131e-03 +1.928250e-01 -7.561659e-02 -3.224362e-02 +3.974280e-02
         +8.685528e-04 -2.292131e-03 +1.299554e-02 -1.164751e-02 -3.224362e-02 +3.974280e-02 +1.928250e-01 -7.561659e-02
55.915062 +1.874564e-01 -7.977228e-02 -2.017375e-02 +4.603248e-02 +1.285113e-02 -1.181244e-02 +2.408840e-04 -2.438080e-03
         -2.017375e-02 +4.603248e-02 +1.874564e-01 -7.977228e-02 +2.408840e-04 -2.438080e-03 +1.285113e-02 -1.181244e-02
         +1.285113e-02 -1.181244e-02 +2.408840e-04 -2.438080e-03 +1.874564e-01 -7.977228e-02 -2.017375e-02 +4.603248e-02
         +2.408840e-04 -2.438080e-03 +1.285113e-02 -1.181244e-02 -2.017375e-02 +4.603248e-02 +1.874564e-01 -7.977228e-02
56.015000 +1.818138e-01 -8.354753e-02 -7.106864e-03 +4.882659e-02 +1.270461e-02 -1.197557e-02 -4.028069e-04 -2.415365e-03
         -7.106864e-03 +4.882659e-02 +1.818138e-01 -8.354753e-02 -4.028069e-04 -2.415365e-03 +1.270461e-02 -1.197557e-02
         +1.270461e-02 -1.197557e-02 -4.028069e-04 -2.415365e-03 +1.818138e-01 -8.354753e-02 -7.106864e-03 +4.882659e-02
         -4.028069e-04 -2.415365e-03 +1.270461e-02 -1.197557e-02 -7.106864e-03 +4.882659e-02 +1.818138e-01 -8.354753e-02
56.114938 +1.759240e-01 -8.692433e-02 +5.984636e-03 +4.805283e-02 +1.255601e-02 -1.213687e-02 -1.018009e-03 -2.225727e-03
         +5.984636e-03 +4.805283e-02 +1.759240e-01 -8.692433e-02 -1.018009e-03 -2.225727e-03 +1.255601e-02 -1.213687e-02
         +1.255601e-02 -1.213687e-02 -1.018009e-03 -2.225727e-03 +1.759240e-01 -8.692433e-02 +5.984636e-03 +4.805283e-02
         -1.018009e-03 -2.225727e-03 +1.255601e-02 -1.213687e-02 +5.984636e-03 +4.805283e-02 +1.759240e-01 -8.692433e-02
56.214875 +1.698153e-01 -8.988660e-02 +1.816249e-02 +4.389940e-02 +1.240535e-02 -1.229632e-02 -1.562228e-03 -1.882441e-03
         +1.816249e-02 +4.389940e-02 +1.698153e-01 -8.988660e-02 -1.562228e-03 -1.882441e-03 +1.240535e-02 -1.229632e-02
         +1.240535e-02 -1.229632e-02 -1.562228e-03 -1.882441e-03 +1.698153e-01 -8.988660e-02 +1.816249e-02 +4.389940e-02
         -1.562228e-03 -1.882441e-03 +1.240535e-02 -1.229632e-02 +1.816249e-02 +4.389940e-02 +1.698153e-01 -8.988660e-02
56.314812 +1.635166e-01 -9.242019e-02 +2.858971e-02 +3.679160e-02 +1.225266e-02 -1.245389e-02 -1.997916e-03 -1.409393e-03
         +2.858971e-02 +3.679160e-02 +1.635166e-01 -9.242019e-02 -1.997916e-03 -1.409393e-03 +1.225266e-02 -1.245389e-02
         +1.225266e-02 -1.245389e-02 -1.997916e-03 -1.409393e-03 +1.635166e-01 -9.242019e-02 +2.858971e-02 +3.679160e-02
         -1.997916e-03 -1.409393e-03 +1.225266e-02 -1.245389e-02 +2.858971e-02 +3.679160e-02 +1.635166e-01 -9.242019e-02
56.414750 +1.570582e-01 -9.451303e-02 +3.658776e-02 +2.735186e-02 +1.209797e-02 -1.260956e-02 -2.295068e-03 -8.394122e-04
         +3.658776e-02 +2.735186e-02 +1.570582e-01 -9.451303e-02 -2.295068e-03 -8.394122e-04 +1.209797e-02 -1.260956e-02
         +1.209797e-02 -1.260956e-02 -2.295068e-03 -8.394122e-04 +1.570582e-01 -9.451303e-02 +3.658776e-02 +2.735186e-02
         -2.295068e-03 -8.394122e-04 +1.209797e-02 -1.260956e-02 +3.658776e-02 +2.735186e-02 +1.570582e-01 -9.451303e-02
56.514687 +1.504706e-01 -9.615513e-02 +4.167993e-02 +1.634676e-02 +1.194128e-02 -1.276330e-02 -2.433285e-03 -2.119969e-04
         +4.167993e-02 +1.634676e-02 +1.504706e-01 -9.615513e-02 -2.433285e-03 -2.119969e-04 +1.194128e-02 -1.276330e-02
         +1.194128e-02 -1.276330e-02 -2.433285e-03 -2.119969e-04 +1.504706e-01 -9.615513e-02 +4.167993e-02 +1.634676e-02
         -2.433285e-03 -2.119969e-04 +1.194128e-02 -1.276330e-02 +4.167993e-02 +1.634676e-02 +1.504706e-01 -9.615513e-02
56.614625 +1.437855e-01 -9.733867e-02 +4.361814e-02 +4.625565e-03 +1.178263e-02 -1.291508e-02 -2.403177e-03 +4.294256e-04
         +4.361814e-02 +4.625565e-03 +1.437855e-01 -9.733867e-02 -2.403177e-03 +4.294256e-04 +1.178263e-02 -1.291508e-02
         +1.178263e-02 -1.291508e-02 -2.403177e-03 +4.294256e-04 +1.437855e-01 -9.733867e-02 +4.361814e-02 +4.625565e-03
         -2.403177e-03 +4.294256e-04 +1.178263e-02 -1.291508e-02 +4.361814e-02 +4.625565e-03 +1.437855e-01 -9.733867e-02
56.714562 +1.370346e-01 -9.805800e-02 +4.239197e-02 -6.944994e-03 +1.162205e-02 -1.306488e-02 -2.206998e-03 +1.040504e-03
         +4.239197e-02 -6.944994e-03 +1.370346e-01 -9.805800e-02 -2.206998e-03 +1.040504e-03 +1.162205e-02 -1.306488e-02
         +1.162205e-02 -1.306488e-02 -2.206998e-03 +1.040504e-03 +1.370346e-01 -9.805800e-02 +4.239197e-02 -6.944994e-03
         -2.206998e-03 +1.040504e-03 +1.162205e-02 -1.306488e-02 +4.239197e-02 -6.944994e-03 +1.370346e-01 -9.805800e-02
56.814500 +1.302502e-01 -9.830968e-02 +3.821976e-02 -1.754452e-02 +1.145955e-02 -1.321267e-02 -1.858482e-03 +1.579032e-03
         +3.821976e-02 -1.754452e-02 +1.302502e-01 -9.830968e-02 -1.858482e-03 +1.579032e-03 +1.145955e-02 -1.321267e-02
         +1.145955e-02 -1.321267e-02 -1.858482e-03 +1.579032e-03 +1.302502e-01 -9.830968e-02 +3.821976e-02 -1.754452e-02
         -1.858482e-03 +1.579032e-03 +1.145955e-02 -1.321267e-02 +3.821976e-02 -1.754452e-02 +1.302502e-01 -9.830968e-02
56.914437 +1.234645e-01 -9.809253e-02 +3.152334e-02 -2.645685e-02 +1.129517e-02 -1.335844e-02 -1.381876e-03 +2.007859e-03
         +3.152334e-02 -2.645685e-02 +1.234645e-01 -9.809253e-02 -1.381876e-03 +2.007859e-03 +1.129517e-02 -1.335844e-02
         +1.129517e-02 -1.335844e-02 -1.381876e-03 +2.007859e-03 +1.234645e-01 -9.809253e-02 +3.152334e-02 -2.645685e-02
         -1.381876e-03 +2.007859e-03 +1.129517e-02 -1.335844e-02 +3.152334e-02 -2.645685e-02 +1.234645e-01 -9.809253e-02
57.014375 +1.167101e-01 -9.740757e-02 +2.288877e-02 -3.311785e-02 +1.112893e-02 -1.350215e-02 -8.102578e-04 +2.297460e-03
         +2.288877e-02 -3.311785e-02 +1.167101e-01 -9.740757e-02 -8.102578e-04 +2.297460e-03 +1.112893e-02 -1.350215e-02
         +1.112893e-02 -1.350215e-02 -8.102578e-04 +2.297460e-03 +1.167101e-01 -9.740757e-02 +2.288877e-02 -3.311785e-02
         -8.102578e-04 +2.297460e-03 +1.112893e-02 -1.350215e-02 +2.288877e-02 -3.311785e-02 +1.167101e-01 -9.740757e-02
57.114313 +1.100190e-01 -9.625807e-02 +1.301673e-02 -3.715008e-02 +1.096085e-02 -1.364378e-02 -1.832391e-04 +2.427962e-03
         +1.301673e-02 -3.715008e-02 +1.100190e-01 -9.625807e-02 -1.832391e-04 +2.427962e-03 +1.096085e-02 -1.364378e-02
         +1.096085e-02 -1.364378e-02 -1.832391e-04 +2.427962e-03 +1.100190e-01 -9.625807e-02 +1.301673e-02 -3.715008e-02
         -1.832391e-04 +2.427962e-03 +1.096085e-02 -1.364378e-02 +1.301673e-02 -3.715008e-02 +1.100190e-01 -9.625807e-02
57.214250 +1.034232e-01 -9.464951e-02 +2.666476e-03 -3.838225e-02 +1.079096e-02 -1.378331e-02 +4.557816e-04 +2.390515e-03
         +2.666476e-03 -3.838225e-02 +1.034232e-01 -9.464951e-02 +4.557816e-04 +2.390515e-03 +1.079096e-02 -1.378331e-02
         +1.079096e-02 -1.378331e-02 +4.557816e-04 +2.390515e-03 +1.034232e-01 -9.464951e-02 +2.666476e-03 -3.838225e-02
         +4.557816e-04 +2.390515e-03 +1.079096e-02 -1.378331e-02 +2.666476e-03 -3.838225e-02 +1.034232e-01 -9.464951e-02
57.314187 +9.695416e-02 -9.258957e-02 -7.401988e-03 -3.685270e-02 +1.061928e-02 -1.392072e-02 +1.062622e-03 +2.187882e-03
         -7.401988e-03 -3.685270e-02 +9.695416e-02 -9.258957e-02 +1.062622e-03 +2.187882e-03 +1.061928e-02 -1.392072e-02
         +1.061928e-02 -1.392072e-02 +1.062622e-03 +2.187882e-03 +9.695416e-02 -9.258957e-02 -7.401988e-03 -3.685270e-02
         +1.062622e-03 +2.187882e-03 +1.061928e-02 -1.392072e-02 -7.401988e-03 -3.685270e-02 +9.695416e-02 -9.258957e-02
57.414125 +9.064271e-02 -9.008807e-02 -1.648338e-02 -3.279729e-02 +1.044586e-02 -1.405598e-02 +1.595370e-03 +1.834248e-03
         -1.648338e-02 -3.279729e-02 +9.064271e-02 -9.008807e-02 +1.595370e-03 +1.834248e-03 +1.044586e-02 -1.405598e-02
         +1.044586e-02 -1.405598e-02 +1.595370e-03 +1.834248e-03 +9.064271e-02 -9.008807e-02 -1.648338e-02 -3.279729e-02
         +1.595370e-03 +1.834248e-03 +1.044586e-02 -1.405598e-02 -1.648338e-02 -3.279729e-02 +9.064271e-02 -9.008807e-02
57.514062 +8.451895e-02 -8.715693e-02 -2.397611e-02 -2.662331e-02 +1.027070e-02 -1.418906e-02 +2.017282e-03 +1.354216e-03
         -2.397611e-02 -2.662331e-02 +8.451895e-02 -8.715693e-02 +2.017282e-03 +1.354216e-03 +1.027070e-02 -1.418906e-02
         +1.027070e-02 -1.418906e-02 +2.017282e-03 +1.354216e-03 +8.451895e-02 -8.715693e-02 -2.397611e-02 -2.662331e-02
         +2.017282e-03 +1.354216e-03 +1.027070e-02 -1.418906e-02 -2.397611e-02 -2.662331e-02 +8.451895e-02 -8.715693e-02
57.614000 +7.861210e-02 -8.381014e-02 -2.942139e-02 -1.887193e-02 +1.009384e-02 -1.431996e-02 +2.299314e-03 +7.811026e-04
         -2.942139e-02 -1.887193e-02 +7.861210e-02 -8.381014e-02 +2.299314e-03 +7.811026e-04 +1.009384e-02 -1.431996e-02
         +1.009384e-02 -1.431996e-02 +2.299314e-03 +7.811026e-04 +7.861210e-02 -8.381014e-02 -2.942139e-02 -1.887193e-02
         +2.299314e-03 +7.811026e-04 +1.009384e-02 -1.431996e-02 -2.942139e-02 -1.887193e-02 +7.861210e-02 -8.381014e-02
57.713938 +7.295032e-02 -8.006366e-02 -3.253012e-02 -1.017247e-02 +9.915301e-03 -1.444864e-02 +2.422121e-03 +1.546216e-04
         -3.253012e-02 -1.017247e-02 +7.295032e-02 -8.006366e-02 +2.422121e-03 +1.546216e-04 +9.915301e-03 -1.444864e-02
         +9.915301e-03 -1.444864e-02 +2.422121e-03 +1.546216e-04 +7.295032e-02 -8.006366e-02 -3.253012e-02 -1.017247e-02
         +2.422121e-03 +1.546216e-04 +9.915301e-03 -1.444864e-02 -3.253012e-02 -1.017247e-02 +7.295032e-02 -8.006366e-02
57.813875 +6.756060e-02 -7.593535e-02 -3.319603e-02 -1.192287e-03 +9.735119e-03 -1.457509e-02 +2.377390e-03 -4.818665e-04
         -3.319603e-02 -1.192287e-03 +6.756060e-02 -7.593535e-02 +2.377390e-03 -4.818665e-04 +9.735119e-03 -1.457509e-02
         +9.735119e-03 -1.457509e-02 +2.377390e-03 -4.818665e-04 +6.756060e-02 -7.593535e-02 -3.319603e-02 -1.192287e-03
         +2.377390e-03 -4.818665e-04 +9.735119e-03 -1.457509e-02 -3.319603e-02 -1.192287e-03 +6.756060e-02 -7.593535e-02
57.913812 +6.246867e-02 -7.144491e-02 -3.149465e-02 +7.413868e-03 +9.553318e-03 -1.469928e-02 +2.168392e-03 -1.084357e-03
         -3.149465e-02 +7.413868e-03 +6.246867e-02 -7.144491e-02 +2.168392e-03 -1.084357e-03 +9.553318e-03 -1.469928e-02
         +9.553318e-03 -1.469928e-02 +2.168392e-03 -1.084357e-03 +6.246867e-02 -7.144491e-02 -3.149465e-02 +7.413868e-03
         +2.168392e-03 -1.084357e-03 +9.553318e-03 -1.469928e-02 -3.149465e-02 +7.413868e-03 +6.246867e-02 -7.144491e-02
58.013750 +5.769879e-02 -6.661374e-02 -2.766898e-02 +1.505113e-02 +9.369928e-03 -1.482119e-02 +1.809754e-03 -1.611242e-03
         -2.766898e-02 +1.505113e-02 +5.769879e-02 -6.661374e-02 +1.809754e-03 -1.611242e-03 +9.369928e-03 -1.482119e-02
         +9.369928e-03 -1.482119e-02 +1.809754e-03 -1.611242e-03 +5.769879e-02 -6.661374e-02 -2.766898e-02 +1.505113e-02
         +1.809754e-03 -1.611242e-03 +9.369928e-03 -1.482119e-02 -2.766898e-02 +1.505113e-02 +5.769879e-02 -6.661374e-02
58.113688 +5.327371e-02 -6.146489e-02 -2.210342e-02 +2.122517e-02 +9.184976e-03 -1.494080e-02 +1.326428e-03 -2.026187e-03
         -2.210342e-02 +2.122517e-02 +5.327371e-02 -6.146489e-02 +1.326428e-03 -2.026187e-03 +9.184976e-03 -1.494080e-02
         +9.184976e-03 -1.494080e-02 +1.326428e-03 -2.026187e-03 +5.327371e-02 -6.146489e-02 -2.210342e-02 +2.122517e-02
         +1.326428e-03 -2.026187e-03 +9.184976e-03 -1.494080e-02 -2.210342e-02 +2.122517e-02 +5.327371e-02 -6.146489e-02
58.213625 +4.921455e-02 -5.602292e-02 -1.528846e-02 +2.557340e-02 +8.998492e-03 -1.505810e-02 +7.519590e-04 -2.300635e-03
         -1.528846e-02 +2.557340e-02 +4.921455e-02 -5.602292e-02 +7.519590e-04 -2.300635e-03 +8.998492e-03 -1.505810e-02
         +8.998492e-03 -1.505810e-02 +7.519590e-04 -2.300635e-03 +4.921455e-02 -5.602292e-02 -1.528846e-02 +2.557340e-02
         +7.519590e-04 -2.300635e-03 +8.998492e-03 -1.505810e-02 -1.528846e-02 +2.557340e-02 +4.921455e-02 -5.602292e-02
58.313562 +4.554065e-02 -5.031377e-02 -7.779251e-03 +2.788496e-02 +8.810504e-03 -1.517306e-02 +1.261549e-04 -2.415771e-03
         -7.779251e-03 +2.788496e-02 +4.554065e-02 -5.031377e-02 +1.261549e-04 -2.415771e-03 +8.810504e-03 -1.517306e-02
         +8.810504e-03 -1.517306e-02 +1.261549e-04 -2.415771e-03 +4.554065e-02 -5.031377e-02 -7.779251e-03 +2.788496e-02
         +1.261549e-04 -2.415771e-03 +8.810504e-03 -1.517306e-02 -7.779251e-03 +2.788496e-02 +4.554065e-02 -5.031377e-02
58.413500 +4.226955e-02 -4.436467e-02 -1.513634e-04 +2.810832e-02 +8.621042e-03 -1.528566e-02 -5.076725e-04 -2.363813e-03
         -1.513634e-04 +2.810832e-02 +4.226955e-02 -4.436467e-02 -5.076725e-04 -2.363813e-03 +8.621042e-03 -1.528566e-02
         +8.621042e-03 -1.528566e-02 -5.076725e-04 -2.363813e-03 +4.226955e-02 -4.436467e-02 -1.513634e-04 +2.810832e-02
         -5.076725e-04 -2.363813e-03 +8.621042e-03 -1.528566e-02 -1.513634e-04 +2.810832e-02 +4.226955e-02 -4.436467e-02
58.513437 +3.941683e-02 -3.820399e-02 +7.042717e-03 +2.634675e-02 +8.430137e-03 -1.539589e-02 -1.105705e-03 -2.148539e-03
         +7.042717e-03 +2.634675e-02 +3.941683e-02 -3.820399e-02 -1.105705e-03 -2.148539e-03 +8.430137e-03 -1.539589e-02
         +8.430137e-03 -1.539589e-02 -1.105705e-03 -2.148539e-03 +3.941683e-02 -3.820399e-02 +7.042717e-03 +2.634675e-02
         -1.105705e-03 -2.148539e-03 +8.430137e-03 -1.539589e-02 +7.042717e-03 +2.634675e-02 +3.941683e-02 -3.820399e-02
58.613375 +3.699610e-02 -3.186112e-02 +1.331321e-02 +2.284238e-02 +8.237817e-03 -1.550372e-02 -1.626647e-03 -1.785012e-03
         +1.331321e-02 +2.284238e-02 +3.699610e-02 -3.186112e-02 -1.626647e-03 -1.785012e-03 +8.237817e-03 -1.550372e-02
         +8.237817e-03 -1.550372e-02 -1.626647e-03 -1.785012e-03 +3.699610e-02 -3.186112e-02 +1.331321e-02 +2.284238e-02
         -1.626647e-03 -1.785012e-03 +8.237817e-03 -1.550372e-02 +1.331321e-02 +2.284238e-02 +3.699610e-02 -3.186112e-02
58.713313 +3.501891e-02 -2.536631e-02 +1.826591e-02 +1.795070e-02 +8.044113e-03 -1.560914e-02 -2.034578e-03 -1.298524e-03
         +1.826591e-02 +1.795070e-02 +3.501891e-02 -2.536631e-02 -2.034578e-03 -1.298524e-03 +8.044113e-03 -1.560914e-02
         +8.044113e-03 -1.560914e-02 -2.034578e-03 -1.298524e-03 +3.501891e-02 -2.536631e-02 +1.826591e-02 +1.795070e-02
         -2.034578e-03 -1.298524e-03 +8.044113e-03 -1.560914e-02 +1.826591e-02 +1.795070e-02 +3.501891e-02 -2.536631e-02
58.813250 +3.349469e-02 -1.875052e-02 +2.162620e-02 +1.210784e-02 +7.849056e-03 -1.571213e-02 -2.301430e-03 -7.228393e-04
         +2.162620e-02 +1.210784e-02 +3.349469e-02 -1.875052e-02 -2.301430e-03 -7.228393e-04 +7.849056e-03 -1.571213e-02
         +7.849056e-03 -1.571213e-02 -2.301430e-03 -7.228393e-04 +3.349469e-02 -1.875052e-02 +2.162620e-02 +1.210784e-02
         -2.301430e-03 -7.228393e-04 +7.849056e-03 -1.571213e-02 +2.162620e-02 +1.210784e-02 +3.349469e-02 -1.875052e-02
58.913187 +3.243071e-02 -1.204531e-02 +2.325277e-02 +5.793571e-03 +7.652675e-03 -1.581267e-02 -2.408919e-03 -9.784920e-05
         +2.325277e-02 +5.793571e-03 +3.243071e-02 -1.204531e-02 -2.408919e-03 -9.784920e-05 +7.652675e-03 -1.581267e-02
         +7.652675e-03 -1.581267e-02 -2.408919e-03 -9.784920e-05 +3.243071e-02 -1.204531e-02 +2.325277e-02 +5.793571e-03
         -2.408919e-03 -9.784920e-05 +7.652675e-03 -1.581267e-02 +2.325277e-02 +5.793571e-03 +3.243071e-02 -1.204531e-02
59.013125 +3.183203e-02 -5.282650e-03 +2.314051e-02 -5.071492e-04 +7.455003e-03 -1.591075e-02 -2.349796e-03 +5.331921e-04
         +2.314051e-02 -5.071492e-04 +3.183203e-02 -5.282650e-03 -2.349796e-03 +5.331921e-04 +7.455003e-03 -1.591075e-02
         +7.455003e-03 -1.591075e-02 -2.349796e-03 +5.331921e-04 +3.183203e-02 -5.282650e-03 +2.314051e-02 -5.071492e-04
         -2.349796e-03 +5.331921e-04 +7.455003e-03 -1.591075e-02 +2.314051e-02 -5.071492e-04 +3.183203e-02 -5.282650e-03
59.113063 +3.170152e-02 +1.505199e-03 +2.141296e-02 -6.340841e-03 +7.256069e-03 -1.600635e-02 -2.128338e-03 +1.126661e-03
         +2.141296e-02 -6.340841e-03 +3.170152e-02 +1.505199e-03 -2.128338e-03 +1.126661e-03 +7.256069e-03 -1.600635e-02
         +7.256069e-03 -1.600635e-02 -2.128338e-03 +1.126661e-03 +3.170152e-02 +1.505199e-03 +2.141296e-02 -6.340841e-03
         -2.128338e-03 +1.126661e-03 +7.256069e-03 -1.600635e-02 +2.141296e-02 -6.340841e-03 +3.170152e-02 +1.505199e-03
59.213000 +3.203980e-02 +8.285869e-03 +1.830526e-02 -1.131782e-02 +7.055906e-03 -1.609945e-02 -1.760037e-03 +1.641583e-03
         +1.830526e-02 -1.131782e-02 +3.203980e-02 +8.285869e-03 -1.760037e-03 +1.641583e-03 +7.055906e-03 -1.609945e-02
         +7.055906e-03 -1.609945e-02 -1.760037e-03 +1.641583e-03 +3.203980e-02 +8.285869e-03 +1.830526e-02 -1.131782e-02
         -1.760037e-03 +1.641583e-03 +7.055906e-03 -1.609945e-02 +1.830526e-02 -1.131782e-02 +3.203980e-02 +8.285869e-03
59.312937 +3.284525e-02 +1.502702e-02 +1.413963e-02 -1.513783e-02 +6.854544e-03 -1.619003e-02 -1.270518e-03 +2.042456e-03
         +1.413963e-02 -1.513783e-02 +3.284525e-02 +1.502702e-02 -1.270518e-03 +2.042456e-03 +6.854544e-03 -1.619003e-02
         +6.854544e-03 -1.619003e-02 -1.270518e-03 +2.042456e-03 +3.284525e-02 +1.502702e-02 +1.413963e-02 -1.513783e-02
         -1.270518e-03 +2.042456e-03 +6.854544e-03 -1.619003e-02 +1.413963e-02 -1.513783e-02 +3.284525e-02 +1.502702e-02
59.412875 +3.411404e-02 +2.169651e-02 +9.295362e-03 -1.760733e-02 +6.652016e-03 -1.627809e-02 -6.937554e-04 +2.301705e-03
         +9.295362e-03 -1.760733e-02 +3.411404e-02 +2.169651e-02 -6.937554e-04 +2.301705e-03 +6.652016e-03 -1.627809e-02
         +6.652016e-03 -1.627809e-02 -6.937554e-04 +2.301705e-03 +3.411404e-02 +2.169651e-02 +9.295362e-03 -1.760733e-02
         -6.937554e-04 +2.301705e-03 +6.652016e-03 -1.627809e-02 +9.295362e-03 -1.760733e-02 +3.411404e-02 +2.169651e-02
59.512812 +3.584011e-02 +2.826253e-02 +4.176228e-03 -1.864753e-02 +6.448353e-03 -1.636361e-02 -6.971440e-05 +2.401575e-03
         +4.176228e-03 -1.864753e-02 +3.584011e-02 +2.826253e-02 -6.971440e-05 +2.401575e-03 +6.448353e-03 -1.636361e-02
         +6.448353e-03 -1.636361e-02 -6.971440e-05 +2.401575e-03 +3.584011e-02 +2.826253e-02 +4.176228e-03 -1.864753e-02
         -6.971440e-05 +2.401575e-03 +6.448353e-03 -1.636361e-02 +4.176228e-03 -1.864753e-02 +3.584011e-02 +2.826253e-02
59.612750 +3.801523e-02 +3.469377e-02 -8.222064e-04 -1.829306e-02 +6.243588e-03 -1.644656e-02 +5.584182e-04 +2.335350e-03
         -8.222064e-04 -1.829306e-02 +3.801523e-02 +3.469377e-02 +5.584182e-04 +2.335350e-03 +6.243588e-03 -1.644656e-02
         +6.243588e-03 -1.644656e-02 +5.584182e-04 +2.335350e-03 +3.801523e-02 +3.469377e-02 -8.222064e-04 -1.829306e-02
         +5.584182e-04 +2.335350e-03 +6.243588e-03 -1.644656e-02 -8.222064e-04 -1.829306e-02 +3.801523e-02 +3.469377e-02
59.712688 +4.062902e-02 +4.095955e-02 -5.342697e-03 -1.668174e-02 +6.037752e-03 -1.652695e-02 +1.147223e-03 +2.107800e-03
         -5.342697e-03 -1.668174e-02 +4.062902e-02 +4.095955e-02 +1.147223e-03 +2.107800e-03 +6.037752e-03 -1.652695e-02
         +6.037752e-03 -1.652695e-02 +1.147223e-03 +2.107800e-03 +4.062902e-02 +4.095955e-02 -5.342697e-03 -1.668174e-02
         +1.147223e-03 +2.107800e-03 +6.037752e-03 -1.652695e-02 -5.342697e-03 -1.668174e-02 +4.062902e-02 +4.095955e-02
59.812625 +4.366903e-02 +4.702999e-02 -9.091622e-03 -1.403690e-02 +5.830878e-03 -1.660474e-02 +1.656050e-03 +1.734841e-03
         -9.091622e-03 -1.403690e-02 +4.366903e-02 +4.702999e-02 +1.656050e-03 +1.734841e-03 +5.830878e-03 -1.660474e-02
         +5.830878e-03 -1.660474e-02 +1.656050e-03 +1.734841e-03 +4.366903e-02 +4.702999e-02 -9.091622e-03 -1.403690e-02
         +1.656050e-03 +1.734841e-03 +5.830878e-03 -1.660474e-02 -9.091622e-03 -1.403690e-02 +4.366903e-02 +4.702999e-02
59.912562 +4.712075e-02 +5.287614e-02 -1.185770e-02 -1.064384e-02 +5.623000e-03 -1.667994e-02 +2.049824e-03 +1.242422e-03
         -1.185770e-02 -1.064384e-02 +4.712075e-02 +5.287614e-02 +2.049824e-03 +1.242422e-03 +5.623000e-03 -1.667994e-02
         +5.623000e-03 -1.667994e-02 +2.049824e-03 +1.242422e-03 +4.712075e-02 +5.287614e-02 -1.185770e-02 -1.064384e-02
         +2.049824e-03 +1.242422e-03 +5.623000e-03 -1.667994e-02 -1.185770e-02 -1.064384e-02 +4.712075e-02 +5.287614e-02
60.012500 +5.096773e-02 +5.847013e-02 -1.352295e-02 -6.822835e-03 +5.414148e-03 -1.675253e-02 +2.301465e-03 +6.647189e-04
         -1.352295e-02 -6.822835e-03 +5.096773e-02 +5.847013e-02 +2.301465e-03 +6.647189e-04 +5.414148e-03 -1.675253e-02
         +5.414148e-03 -1.675253e-02 +2.301465e-03 +6.647189e-04 +5.096773e-02 +5.847013e-02 -1.352295e-02 -6.822835e-03
         +2.301465e-03 +6.647189e-04 +5.414148e-03 -1.675253e-02 -1.352295e-02 -6.822835e-03 +5.096773e-02 +5.847013e-02
60.112438 +5.519161e-02 +6.378527e-02 -1.406542e-02 -2.900917e-03 +5.204358e-03 -1.682249e-02 +2.393749e-03 +4.176005e-05
         -1.406542e-02 -2.900917e-03 +5.519161e-02 +6.378527e-02 +2.393749e-03 +4.176005e-05 +5.204358e-03 -1.682249e-02
         +5.204358e-03 -1.682249e-02 +2.393749e-03 +4.176005e-05 +5.519161e-02 +6.378527e-02 -1.406542e-02 -2.900917e-03
         +2.393749e-03 +4.176005e-05 +5.204358e-03 -1.682249e-02 -1.406542e-02 -2.900917e-03 +5.519161e-02 +6.378527e-02
60.212375 +5.977226e-02 +6.879622e-02 -1.355388e-02 +8.151306e-04 +4.993661e-03 -1.688981e-02 +2.320486e-03 -5.833437e-04
         -1.355388e-02 +8.151306e-04 +5.977226e-02 +6.879622e-02 +2.320486e-03 -5.833437e-04 +4.993661e-03 -1.688981e-02
         +4.993661e-03 -1.688981e-02 +2.320486e-03 -5.833437e-04 +5.977226e-02 +6.879622e-02 -1.355388e-02 +8.151306e-04
         +2.320486e-03 -5.833437e-04 +4.993661e-03 -1.688981e-02 -1.355388e-02 +8.151306e-04 +5.977226e-02 +6.879622e-02
60.312312 +6.468782e-02 +7.347908e-02 -1.213535e-02 +4.062404e-03 +4.782091e-03 -1.695449e-02 +2.086938e-03 -1.167385e-03
         -1.213535e-02 +4.062404e-03 +6.468782e-02 +7.347908e-02 +2.086938e-03 -1.167385e-03 +4.782091e-03 -1.695449e-02
         +4.782091e-03 -1.695449e-02 +2.086938e-03 -1.167385e-03 +6.468782e-02 +7.347908e-02 -1.213535e-02 +4.062404e-03
         +2.086938e-03 -1.167385e-03 +4.782091e-03 -1.695449e-02 -1.213535e-02 +4.062404e-03 +6.468782e-02 +7.347908e-02
60.412250 +6.991486e-02 +7.781151e-02 -1.001685e-02 +6.640344e-03 +4.569682e-03 -1.701650e-02 +1.709438e-03 -1.670047e-03
         -1.001685e-02 +6.640344e-03 +6.991486e-02 +7.781151e-02 +1.709438e-03 -1.670047e-03 +4.569682e-03 -1.701650e-02
         +4.569682e-03 -1.701650e-02 +1.709438e-03 -1.670047e-03 +6.991486e-02 +7.781151e-02 -1.001685e-02 +6.640344e-03
         +1.709438e-03 -1.670047e-03 +4.569682e-03 -1.701650e-02 -1.001685e-02 +6.640344e-03 +6.991486e-02 +7.781151e-02
60.512187 +7.542844e-02 +8.177286e-02 -7.443276e-03 +8.422745e-03 +4.356466e-03 -1.707584e-02 +1.214250e-03 -2.056686e-03
         -7.443276e-03 +8.422745e-03 +7.542844e-02 +8.177286e-02 +1.214250e-03 -2.056686e-03 +4.356466e-03 -1.707584e-02
         +4.356466e-03 -1.707584e-02 +1.214250e-03 -2.056686e-03 +7.542844e-02 +8.177286e-02 -7.443276e-03 +8.422745e-03
         +1.214250e-03 -2.056686e-03 +4.356466e-03 -1.707584e-02 -7.443276e-03 +8.422745e-03 +7.542844e-02 +8.177286e-02
60.612125 +8.120228e-02 +8.534424e-02 -4.673398e-03 +9.362607e-03 +4.142479e-03 -1.713250e-02 +6.357410e-04 -2.300717e-03
         -4.673398e-03 +9.362607e-03 +8.120228e-02 +8.534424e-02 +6.357410e-04 -2.300717e-03 +4.142479e-03 -1.713250e-02
         +4.142479e-03 -1.713250e-02 +6.357410e-04 -2.300717e-03 +8.120228e-02 +8.534424e-02 -4.673398e-03 +9.362607e-03
         +6.357410e-04 -2.300717e-03 +4.142479e-03 -1.713250e-02 -4.673398e-03 +9.362607e-03 +8.120228e-02 +8.534424e-02
60.712063 +8.720884e-02 +8.850860e-02 -1.956232e-03 +9.489797e-03 +3.927753e-03 -1.718647e-02 +1.399540e-05 -2.385448e-03
         -1.956232e-03 +9.489797e-03 +8.720884e-02 +8.850860e-02 +1.399540e-05 -2.385448e-03 +3.927753e-03 -1.718647e-02
         +3.927753e-03 -1.718647e-02 +1.399540e-05 -2.385448e-03 +8.720884e-02 +8.850860e-02 -1.956232e-03 +9.489797e-03
         +1.399540e-05 -2.385448e-03 +3.927753e-03 -1.718647e-02 -1.956232e-03 +9.489797e-03 +8.720884e-02 +8.850860e-02
60.812000 +9.341947e-02 +9.125087e-02 +4.902209e-04 +8.902068e-03 +3.712322e-03 -1.723774e-02 -6.079624e-04 -2.305215e-03
         +4.902209e-04 +8.902068e-03 +9.341947e-02 +9.125087e-02 -6.079624e-04 -2.305215e-03 +3.712322e-03 -1.723774e-02
         +3.712322e-03 -1.723774e-02 -6.079624e-04 -2.305215e-03 +9.341947e-02 +9.125087e-02 +4.902209e-04 +8.902068e-03
         -6.079624e-04 -2.305215e-03 +3.712322e-03 -1.723774e-02 +4.902209e-04 +8.902068e-03 +9.341947e-02 +9.125087e-02
60.911938 +9.980455e-02 +9.355795e-02 +2.496078e-03 +7.750581e-03 +3.496222e-03 -1.728630e-02 -1.187145e-03 -2.065765e-03
         +2.496078e-03 +7.750581e-03 +9.980455e-02 +9.355795e-02 -1.187145e-03 -2.065765e-03 +3.496222e-03 -1.728630e-02
         +3.496222e-03 -1.728630e-02 -1.187145e-03 -2.065765e-03 +9.980455e-02 +9.355795e-02 +2.496078e-03 +7.750581e-03
         -1.187145e-03 -2.065765e-03 +3.496222e-03 -1.728630e-02 +2.496078e-03 +7.750581e-03 +9.980455e-02 +9.355795e-02
61.011875 +1.063336e-01 +9.541886e-02 +3.951195e-03 +6.221486e-03 +3.279485e-03 -1.733214e-02 -1.683576e-03 -1.683840e-03
         +3.951195e-03 +6.221486e-03 +1.063336e-01 +9.541886e-02 -1.683576e-03 -1.683840e-03 +3.279485e-03 -1.733214e-02
         +3.279485e-03 -1.733214e-02 -1.683576e-03 -1.683840e-03 +1.063336e-01 +9.541886e-02 +3.951195e-03 +6.221486e-03
         -1.683576e-03 -1.683840e-03 +3.279485e-03 -1.733214e-02 +3.951195e-03 +6.221486e-03 +1.063336e-01 +9.541886e-02
61.111812 +1.129756e-01 +9.682471e-02 +4.810487e-03 +4.515428e-03 +3.062147e-03 -1.737525e-02 -2.063044e-03 -1.186013e-03
         +4.810487e-03 +4.515428e-03 +1.129756e-01 +9.682471e-02 -2.063044e-03 -1.186013e-03 +3.062147e-03 -1.737525e-02
         +3.062147e-03 -1.737525e-02 -2.063044e-03 -1.186013e-03 +1.129756e-01 +9.682471e-02 +4.810487e-03 +4.515428e-03
         -2.063044e-03 -1.186013e-03 +3.062147e-03 -1.737525e-02 +4.810487e-03 +4.515428e-03 +1.129756e-01 +9.682471e-02
61.211750 +1.196987e-01 +9.776881e-02 +5.092734e-03 +2.826987e-03 +2.844241e-03 -1.741563e-02 -2.299468e-03 -6.068329e-04
         +5.092734e-03 +2.826987e-03 +1.196987e-01 +9.776881e-02 -2.299468e-03 -6.068329e-04 +2.844241e-03 -1.741563e-02
         +2.844241e-03 -1.741563e-02 -2.299468e-03 -6.068329e-04 +1.196987e-01 +9.776881e-02 +5.092734e-03 +2.826987e-03
         -2.299468e-03 -6.068329e-04 +2.844241e-03 -1.741563e-02 +5.092734e-03 +2.826987e-03 +1.196987e-01 +9.776881e-02
61.311687 +1.264710e-01 +9.824664e-02 +4.873196e-03 +1.326000e-03 +2.625803e-03 -1.745326e-02 -2.376682e-03 +1.357063e-05
         +4.873196e-03 +1.326000e-03 +1.264710e-01 +9.824664e-02 -2.376682e-03 +1.357063e-05 +2.625803e-03 -1.745326e-02
         +2.625803e-03 -1.745326e-02 -2.376682e-03 +1.357063e-05 +1.264710e-01 +9.824664e-02 +4.873196e-03 +1.326000e-03
         -2.376682e-03 +1.357063e-05 +2.625803e-03 -1.745326e-02 +4.873196e-03 +1.326000e-03 +1.264710e-01 +9.824664e-02
61.411625 +1.332601e-01 +9.825593e-02 +4.270875e-03 +1.425079e-04 +2.406866e-03 -1.748814e-02 -2.289548e-03 +6.322677e-04
         +4.270875e-03 +1.425079e-04 +1.332601e-01 +9.825593e-02 -2.289548e-03 +6.322677e-04 +2.406866e-03 -1.748814e-02
         +2.406866e-03 -1.748814e-02 -2.289548e-03 +6.322677e-04 +1.332601e-01 +9.825593e-02 +4.270875e-03 +1.425079e-04
         -2.289548e-03 +6.322677e-04 +2.406866e-03 -1.748814e-02 +4.270875e-03 +1.425079e-04 +1.332601e-01 +9.825593e-02
61.511562 +1.400336e-01 +9.779664e-02 +3.431533e-03 -6.432681e-04 +2.187467e-03 -1.752027e-02 -2.044292e-03 +1.206500e-03
         +3.431533e-03 -6.432681e-04 +1.400336e-01 +9.779664e-02 -2.044292e-03 +1.206500e-03 +2.187467e-03 -1.752027e-02
         +2.187467e-03 -1.752027e-02 -2.044292e-03 +1.206500e-03 +1.400336e-01 +9.779664e-02 +3.431533e-03 -6.432681e-04
         -2.044292e-03 +1.206500e-03 +2.187467e-03 -1.752027e-02 +3.431533e-03 -6.432681e-04 +1.400336e-01 +9.779664e-02
61.611500 +1.467593e-01 +9.687095e-02 +2.507328e-03 -1.005114e-03 +1.967639e-03 -1.754964e-02 -1.658060e-03 +1.696635e-03
         +2.507328e-03 -1.005114e-03 +1.467593e-01 +9.687095e-02 -1.658060e-03 +1.696635e-03 +1.967639e-03 -1.754964e-02
         +1.967639e-03 -1.754964e-02 -1.658060e-03 +1.696635e-03 +1.467593e-01 +9.687095e-02 +2.507328e-03 -1.005114e-03
         -1.658060e-03 +1.696635e-03 +1.967639e-03 -1.754964e-02 +2.507328e-03 -1.005114e-03 +1.467593e-01 +9.687095e-02
61.711438 +1.534051e-01 +9.548328e-02 +1.632426e-03 -9.699420e-04 +1.747417e-03 -1.757623e-02 -1.157724e-03 +2.068903e-03
         +1.632426e-03 -9.699420e-04 +1.534051e-01 +9.548328e-02 -1.157724e-03 +2.068903e-03 +1.747417e-03 -1.757623e-02
         +1.747417e-03 -1.757623e-02 -1.157724e-03 +2.068903e-03 +1.534051e-01 +9.548328e-02 +1.632426e-03 -9.699420e-04
         -1.157724e-03 +2.068903e-03 +1.747417e-03 -1.757623e-02 +1.632426e-03 -9.699420e-04 +1.534051e-01 +9.548328e-02
61.811375 +1.599393e-01 +9.364025e-02 +8.897396e-04 -6.210818e-04 +1.526837e-03 -1.760006e-02 -5.780051e-04 +2.297723e-03
         +8.897396e-04 -6.210818e-04 +1.599393e-01 +9.364025e-02 -5.780051e-04 +2.297723e-03 +1.526837e-03 -1.760006e-02
         +1.526837e-03 -1.760006e-02 -5.780051e-04 +2.297723e-03 +1.599393e-01 +9.364025e-02 +8.897396e-04 -6.210818e-04
         -5.780051e-04 +2.297723e-03 +1.526837e-03 -1.760006e-02 +8.897396e-04 -6.210818e-04 +1.599393e-01 +9.364025e-02
61.911313 +1.663306e-01 +9.135065e-02 +2.838273e-04 -1.609593e-04 +1.305933e-03 -1.762110e-02 +4.092945e-05 +2.367460e-03
         +2.838273e-04 -1.609593e-04 +1.663306e-01 +9.135065e-02 +4.092945e-05 +2.367460e-03 +1.305933e-03 -1.762110e-02
         +1.305933e-03 -1.762110e-02 +4.092945e-05 +2.367460e-03 +1.663306e-01 +9.135065e-02 +2.838273e-04 -1.609593e-04
         +4.092945e-05 +2.367460e-03 +1.305933e-03 -1.762110e-02 +2.838273e-04 -1.609593e-04 +1.663306e-01 +9.135065e-02
62.011250 +1.725487e-01 +8.862539e-02 +5.891988e-06 -1.182700e-06 +1.084741e-03 -1.763937e-02 +6.562540e-04 +2.273496e-03
         +5.891988e-06 -1.182700e-06 +1.725487e-01 +8.862539e-02 +6.562540e-04 +2.273496e-03 +1.084741e-03 -1.763937e-02
         +1.084741e-03 -1.763937e-02 +6.562540e-04 +2.273496e-03 +1.725487e-01 +8.862539e-02 +5.891988e-06 -1.182700e-06
         +6.562540e-04 +2.273496e-03 +1.084741e-03 -1.763937e-02 +5.891988e-06 -1.182700e-06 +1.725487e-01 +8.862539e-02
62.111187 +1.785639e-01 +8.547748e-02 +4.777414e-04 +3.750092e-05 +8.632961e-04 -1.765485e-02 +1.225446e-03 +2.022532e-03
         +4.777414e-04 +3.750092e-05 +1.785639e-01 +8.547748e-02 +1.225446e-03 +2.022532e-03 +8.632961e-04 -1.765485e-02
         +8.632961e-04 -1.765485e-02 +1.225446e-03 +2.022532e-03 +1.785639e-01 +8.547748e-02 +4.777414e-04 +3.750092e-05
         +1.225446e-03 +2.022532e-03 +8.632961e-04 -1.765485e-02 +4.777414e-04 +3.750092e-05 +1.785639e-01 +8.547748e-02
62.211125 +1.843475e-01 +8.192193e-02 +1.250866e-03 +1.562884e-04 +6.416328e-04 -1.766753e-02 +1.709226e-03 +1.632110e-03
         +1.250866e-03 +1.562884e-04 +1.843475e-01 +8.192193e-02 +1.709226e-03 +1.632110e-03 +6.416328e-04 -1.766753e-02
         +6.416328e-04 -1.766753e-02 +1.709226e-03 +1.632110e-03 +1.843475e-01 +8.192193e-02 +1.250866e-03 +1.562884e-04
         +1.709226e-03 +1.632110e-03 +6.416328e-04 -1.766753e-02 +1.250866e-03 +1.562884e-04 +1.843475e-01 +8.192193e-02
62.311062 +1.898719e-01 +7.797568e-02 +2.061594e-03 +5.535276e-05 +4.197867e-04 -1.767743e-02 +2.074266e-03 +1.129394e-03
         +2.061594e-03 +5.535276e-05 +1.898719e-01 +7.797568e-02 +2.074266e-03 +1.129394e-03 +4.197867e-04 -1.767743e-02
         +4.197867e-04 -1.767743e-02 +2.074266e-03 +1.129394e-03 +1.898719e-01 +7.797568e-02 +2.061594e-03 +5.535276e-05
         +2.074266e-03 +1.129394e-03 +4.197867e-04 -1.767743e-02 +2.061594e-03 +5.535276e-05 +1.898719e-01 +7.797568e-02
62.411000 +1.951108e-01 +7.365757e-02 +2.818382e-03 -3.975018e-04 +1.977932e-04 -1.768453e-02 +2.295490e-03 +5.492681e-04
         +2.818382e-03 -3.975018e-04 +1.951108e-01 +7.365757e-02 +2.295490e-03 +5.492681e-04 +1.977932e-04 -1.768453e-02
         +1.977932e-04 -1.768453e-02 +2.295490e-03 +5.492681e-04 +1.951108e-01 +7.365757e-02 +2.818382e-03 -3.975018e-04
         +2.295490e-03 +5.492681e-04 +1.977932e-04 -1.768453e-02 +2.818382e-03 -3.975018e-04 +1.951108e-01 +7.365757e-02
62.510937 +2.000392e-01 +6.898819e-02 +3.403918e-03 -1.214987e-03 -2.431237e-05 -1.768883e-02 +2.357792e-03 -6.807275e-05
         +3.403918e-03 -1.214987e-03 +2.000392e-01 +6.898819e-02 +2.357792e-03 -6.807275e-05 -2.431237e-05 -1.768883e-02
         -2.431237e-05 -1.768883e-02 +2.357792e-03 -6.807275e-05 +2.000392e-01 +6.898819e-02 +3.403918e-03 -1.214987e-03
         +2.357792e-03 -6.807275e-05 -2.431237e-05 -1.768883e-02 +3.403918e-03 -1.214987e-03 +2.000392e-01 +6.898819e-02
62.610875 +2.046335e-01 +6.398979e-02 +3.689366e-03 -2.342941e-03 -2.464947e-04 -1.769033e-02 +2.257070e-03 -6.799154e-04
         +3.689366e-03 -2.342941e-03 +2.046335e-01 +6.398979e-02 +2.257070e-03 -6.799154e-04 -2.464947e-04 -1.769033e-02
         -2.464947e-04 -1.769033e-02 +2.257070e-03 -6.799154e-04 +2.046335e-01 +6.398979e-02 +3.689366e-03 -2.342941e-03
         +2.257070e-03 -6.799154e-04 -2.464947e-04 -1.769033e-02 +3.689366e-03 -2.342941e-03 +2.046335e-01 +6.398979e-02
62.710812 +2.088719e-01 +5.868623e-02 +3.561320e-03 -3.675285e-03 -4.687184e-04 -1.768904e-02 +2.000496e-03 -1.243981e-03
         +3.561320e-03 -3.675285e-03 +2.088719e-01 +5.868623e-02 +2.000496e-03 -1.243981e-03 -4.687184e-04 -1.768904e-02
         -4.687184e-04 -1.768904e-02 +2.000496e-03 -1.243981e-03 +2.088719e-01 +5.868623e-02 +3.561320e-03 -3.675285e-03
         +2.000496e-03 -1.243981e-03 -4.687184e-04 -1.768904e-02 +3.561320e-03 -3.675285e-03 +2.088719e-01 +5.868623e-02
62.810750 +2.127342e-01 +5.310280e-02 +2.942060e-03 -5.065290e-03 -6.909481e-04 -1.768494e-02 +1.606003e-03 -1.721348e-03
         +2.942060e-03 -5.065290e-03 +2.127342e-01 +5.310280e-02 +1.606003e-03 -1.721348e-03 -6.909481e-04 -1.768494e-02
         -6.909481e-04 -1.768494e-02 +1.606003e-03 -1.721348e-03 +2.127342e-01 +5.310280e-02 +2.942060e-03 -5.065290e-03
         +1.606003e-03 -1.721348e-03 -6.909481e-04 -1.768494e-02 +2.942060e-03 -5.065290e-03 +2.127342e-01 +5.310280e-02
62.910688 +2.162019e-01 +4.726611e-02 +1.803813e-03 -6.339977e-03 -9.131482e-04 -1.767804e-02 +1.101034e-03 -2.079136e-03
         +1.803813e-03 -6.339977e-03 +2.162019e-01 +4.726611e-02 +1.101034e-03 -2.079136e-03 -9.131482e-04 -1.767804e-02
         -9.131482e-04 -1.767804e-02 +1.101034e-03 -2.079136e-03 +2.162019e-01 +4.726611e-02 +1.803813e-03 -6.339977e-03
         +1.101034e-03 -2.079136e-03 -9.131482e-04 -1.767804e-02 +1.803813e-03 -6.339977e-03 +2.162019e-01 +4.726611e-02
63.010625 +2.192585e-01 +4.120401e-02 +1.770926e-04 -7.317778e-03 -1.135283e-03 -1.766834e-02 +5.206320e-04 -2.292774e-03
         +1.770926e-04 -7.317778e-03 +2.192585e-01 +4.120401e-02 +5.206320e-04 -2.292774e-03 -1.135283e-03 -1.766834e-02
         -1.135283e-03 -1.766834e-02 +5.206320e-04 -2.292774e-03 +2.192585e-01 +4.120401e-02 +1.770926e-04 -7.317778e-03
         +5.206320e-04 -2.292774e-03 -1.135283e-03 -1.766834e-02 +1.770926e-04 -7.317778e-03 +2.192585e-01 +4.120401e-02
63.110563 +2.218895e-01 +3.494541e-02 -1.847272e-03 -7.828071e-03 -1.357318e-03 -1.765584e-02 -9.499252e-05 -2.347685e-03
         -1.847272e-03 -7.828071e-03 +2.218895e-01 +3.494541e-02 -9.499252e-05 -2.347685e-03 -1.357318e-03 -1.765584e-02
         -1.357318e-03 -1.765584e-02 -9.499252e-05 -2.347685e-03 +2.218895e-01 +3.494541e-02 -1.847272e-03 -7.828071e-03
         -9.499252e-05 -2.347685e-03 -1.357318e-03 -1.765584e-02 -1.847272e-03 -7.828071e-03 +2.218895e-01 +3.494541e-02
63.210500 +2.240822e-01 +2.852015e-02 -4.122594e-03 -7.730717e-03 -1.579218e-03 -1.764054e-02 -7.032467e-04 -2.240281e-03
         -4.122594e-03 -7.730717e-03 +2.240822e-01 +2.852015e-02 -7.032467e-04 -2.240281e-03 -1.579218e-03 -1.764054e-02
         -1.579218e-03 -1.764054e-02 -7.032467e-04 -2.240281e-03 +2.240822e-01 +2.852015e-02 -4.122594e-03 -7.730717e-03
         -7.032467e-04 -2.240281e-03 -1.579218e-03 -1.764054e-02 -4.122594e-03 -7.730717e-03 +2.240822e-01 +2.852015e-02
63.310437 +2.258262e-01 +2.195888e-02 -6.456961e-03 -6.933627e-03 -1.800946e-03 -1.762244e-02 -1.262103e-03 -1.978197e-03
         -6.456961e-03 -6.933627e-03 +2.258262e-01 +2.195888e-02 -1.262103e-03 -1.978197e-03 -1.800946e-03 -1.762244e-02
         -1.800946e-03 -1.762244e-02 -1.262103e-03 -1.978197e-03 +2.258262e-01 +2.195888e-02 -6.456961e-03 -6.933627e-03
         -1.262103e-03 -1.978197e-03 -1.800946e-03 -1.762244e-02 -6.456961e-03 -6.933627e-03 +2.258262e-01 +2.195888e-02
63.410375 +2.271133e-01 +1.529289e-02 -8.629218e-03 -5.406533e-03 -2.022467e-03 -1.760155e-02 -1.733003e-03 -1.579750e-03
         -8.629218e-03 -5.406533e-03 +2.271133e-01 +1.529289e-02 -1.733003e-03 -1.579750e-03 -2.022467e-03 -1.760155e-02
         -2.022467e-03 -1.760155e-02 -1.733003e-03 -1.579750e-03 +2.271133e-01 +1.529289e-02 -8.629218e-03 -5.406533e-03
         -1.733003e-03 -1.579750e-03 -2.022467e-03 -1.760155e-02 -8.629218e-03 -5.406533e-03 +2.271133e-01 +1.529289e-02
63.510312 +2.279372e-01 +8.553966e-03 -1.040892e-02 -3.189406e-03 -2.243747e-03 -1.757786e-02 -2.083518e-03 -1.072657e-03
         -1.040892e-02 -3.189406e-03 +2.279372e-01 +8.553966e-03 -2.083518e-03 -1.072657e-03 -2.243747e-03 -1.757786e-02
         -2.243747e-03 -1.757786e-02 -2.083518e-03 -1.072657e-03 +2.279372e-01 +8.553966e-03 -1.040892e-02 -3.189406e-03
         -2.083518e-03 -1.072657e-03 -2.243747e-03 -1.757786e-02 -1.040892e-02 -3.189406e-03 +2.279372e-01 +8.553966e-03
63.610250 +2.282940e-01 +1.774247e-03 -1.157852e-02 -3.944637e-04 -2.464749e-03 -1.755138e-02 -2.289584e-03 -4.921066e-04
         -1.157852e-02 -3.944637e-04 +2.282940e-01 +1.774247e-03 -2.289584e-03 -4.921066e-04 -2.464749e-03 -1.755138e-02
         -2.464749e-03 -1.755138e-02 -2.289584e-03 -4.921066e-04 +2.282940e-01 +1.774247e-03 -1.157852e-02 -3.944637e-04
         -2.289584e-03 -4.921066e-04 -2.464749e-03 -1.755138e-02 -1.157852e-02 -3.944637e-04 +2.282940e-01 +1.774247e-03
63.710187 +2.281821e-01 -5.013933e-03 -1.195564e-02 +2.798745e-03 -2.685439e-03 -1.752211e-02 -2.337149e-03 +1.216811e-04
         -1.195564e-02 +2.798745e-03 +2.281821e-01 -5.013933e-03 -2.337149e-03 +1.216811e-04 -2.685439e-03 -1.752211e-02
         -2.685439e-03 -1.752211e-02 -2.337149e-03 +1.216811e-04 +2.281821e-01 -5.013933e-03 -1.195564e-02 +2.798745e-03
         -2.337149e-03 +1.216811e-04 -2.685439e-03 -1.752211e-02 -1.195564e-02 +2.798745e-03 +2.281821e-01 -5.013933e-03
63.810125 +2.276019e-01 -1.177820e-02 -1.141352e-02 +6.155038e-03 -2.905781e-03 -1.749006e-02 -2.223138e-03 +7.262428e-04
         -1.141352e-02 +6.155038e-03 +2.276019e-01 -1.177820e-02 -2.223138e-03 +7.262428e-04 -2.905781e-03 -1.749006e-02
         -2.905781e-03 -1.749006e-02 -2.223138e-03 +7.262428e-04 +2.276019e-01 -1.177820e-02 -1.141352e-02 +6.155038e-03
         -2.223138e-03 +7.262428e-04 -2.905781e-03 -1.749006e-02 -1.141352e-02 +6.155038e-03 +2.276019e-01 -1.177820e-02
63.910063 +2.265563e-01 -1.848630e-02 -9.897324e-03 +9.401312e-03 -3.125740e-03 -1.745523e-02 -1.955646e-03 +1.279809e-03
         -9.897324e-03 +9.401312e-03 +2.265563e-01 -1.848630e-02 -1.955646e-03 +1.279809e-03 -3.125740e-03 -1.745523e-02
         -3.125740e-03 -1.745523e-02 -1.955646e-03 +1.279809e-03 +2.265563e-01 -1.848630e-02 -9.897324e-03 +9.401312e-03
         -1.955646e-03 +1.279809e-03 -3.125740e-03 -1.745523e-02 -9.897324e-03 +9.401312e-03 +2.265563e-01 -1.848630e-02
64.010000 +2.250502e-01 -2.510624e-02 -7.434847e-03 +1.224890e-02 -3.345280e-03 -1.741763e-02 -1.553363e-03 +1.744192e-03
         -7.434847e-03 +1.224890e-02 +2.250502e-01 -2.510624e-02 -1.553363e-03 +1.744192e-03 -3.345280e-03 -1.741763e-02
         -3.345280e-03 -1.741763e-02 -1.553363e-03 +1.744192e-03 +2.250502e-01 -2.510624e-02 -7.434847e-03 +1.224890e-02
         -1.553363e-03 +1.744192e-03 -3.345280e-03 -1.741763e-02 -7.434847e-03 +1.224890e-02 +2.250502e-01 -2.510624e-02
64.109938 +2.230908e-01 -3.160644e-02 -4.140200e-03 +1.441872e-02 -3.564368e-03 -1.737726e-02 -1.044273e-03 +2.087416e-03
         -4.140200e-03 +1.441872e-02 +2.230908e-01 -3.160644e-02 -1.044273e-03 +2.087416e-03 -3.564368e-03 -1.737726e-02
         -3.564368e-03 -1.737726e-02 -1.044273e-03 +2.087416e-03 +2.230908e-01 -3.160644e-02 -4.140200e-03 +1.441872e-02
         -1.044273e-03 +2.087416e-03 -3.564368e-03 -1.737726e-02 -4.140200e-03 +1.441872e-02 +2.230908e-01 -3.160644e-02
64.209875 +2.206874e-01 -3.795591e-02 -2.098517e-04 +1.566709e-02 -3.782966e-03 -1.733412e-02 -4.637015e-04 +2.285925e-03
         -2.098517e-04 +1.566709e-02 +2.206874e-01 -3.795591e-02 -4.637015e-04 +2.285925e-03 -3.782966e-03 -1.733412e-02
         -3.782966e-03 -1.733412e-02 -4.637015e-04 +2.285925e-03 +2.206874e-01 -3.795591e-02 -2.098517e-04 +1.566709e-02
         -4.637015e-04 +2.285925e-03 -3.782966e-03 -1.733412e-02 -2.098517e-04 +1.566709e-02 +2.206874e-01 -3.795591e-02
64.309812 +2.178516e-01 -4.412437e-02 +4.088977e-03 +1.580985e-02 -4.001042e-03 -1.728822e-02 +1.481310e-04 +2.326194e-03
         +4.088977e-03 +1.580985e-02 +2.178516e-01 -4.412437e-02 +1.481310e-04 +2.326194e-03 -4.001042e-03 -1.728822e-02
         -4.001042e-03 -1.728822e-02 +1.481310e-04 +2.326194e-03 +2.178516e-01 -4.412437e-02 +4.088977e-03 +1.580985e-02
         +1.481310e-04 +2.326194e-03 -4.001042e-03 -1.728822e-02 +4.088977e-03 +1.580985e-02 +2.178516e-01 -4.412437e-02
64.409750 +2.145967e-01 -5.008240e-02 +8.436896e-03 +1.474252e-02 -4.218559e-03 -1.723957e-02 +7.488990e-04 +2.205654e-03
         +8.436896e-03 +1.474252e-02 +2.145967e-01 -5.008240e-02 +7.488990e-04 +2.205654e-03 -4.218559e-03 -1.723957e-02
         -4.218559e-03 -1.723957e-02 +7.488990e-04 +2.205654e-03 +2.145967e-01 -5.008240e-02 +8.436896e-03 +1.474252e-02
         +7.488990e-04 +2.205654e-03 -4.218559e-03 -1.723957e-02 +8.436896e-03 +1.474252e-02 +2.145967e-01 -5.008240e-02
64.509687 +2.109385e-01 -5.580159e-02 +1.248656e-02 +1.245470e-02 -4.435484e-03 -1.718817e-02 +1.297099e-03 +1.932854e-03
         +1.248656e-02 +1.245470e-02 +2.109385e-01 -5.580159e-02 +1.297099e-03 +1.932854e-03 -4.435484e-03 -1.718817e-02
         -4.435484e-03 -1.718817e-02 +1.297099e-03 +1.932854e-03 +2.109385e-01 -5.580159e-02 +1.248656e-02 +1.245470e-02
         +1.297099e-03 +1.932854e-03 -4.435484e-03 -1.718817e-02 +1.248656e-02 +1.245470e-02 +2.109385e-01 -5.580159e-02
64.609625 +2.068942e-01 -6.125466e-02 +1.589066e-02 +9.036865e-03 -4.651780e-03 -1.713404e-02 +1.754916e-03 +1.526854e-03
         +1.589066e-02 +9.036865e-03 +2.068942e-01 -6.125466e-02 +1.754916e-03 +1.526854e-03 -4.651780e-03 -1.713404e-02
         -4.651780e-03 -1.713404e-02 +1.754916e-03 +1.526854e-03 +2.068942e-01 -6.125466e-02 +1.589066e-02 +9.036865e-03
         +1.754916e-03 +1.526854e-03 -4.651780e-03 -1.713404e-02 +1.589066e-02 +9.036865e-03 +2.068942e-01 -6.125466e-02
64.709563 +2.024833e-01 -6.641560e-02 +1.833137e-02 +4.678980e-03 -4.867414e-03 -1.707718e-02 +2.090834e-03 +1.015892e-03
         +1.833137e-02 +4.678980e-03 +2.024833e-01 -6.641560e-02 +2.090834e-03 +1.015892e-03 -4.867414e-03 -1.707718e-02
         -4.867414e-03 -1.707718e-02 +2.090834e-03 +1.015892e-03 +2.024833e-01 -6.641560e-02 +1.833137e-02 +4.678980e-03
         +2.090834e-03 +1.015892e-03 -4.867414e-03 -1.707718e-02 +1.833137e-02 +4.678980e-03 +2.024833e-01 -6.641560e-02
64.809500 +1.977266e-01 -7.125980e-02 +1.954881e-02 -3.396055e-04 -5.082351e-03 -1.701759e-02 +2.281804e-03 +4.354260e-04
         +1.954881e-02 -3.396055e-04 +1.977266e-01 -7.125980e-02 +2.281804e-03 +4.354260e-04 -5.082351e-03 -1.701759e-02
         -5.082351e-03 -1.701759e-02 +2.281804e-03 +4.354260e-04 +1.977266e-01 -7.125980e-02 +1.954881e-02 -3.396055e-04
         +2.281804e-03 +4.354260e-04 -5.082351e-03 -1.701759e-02 +1.954881e-02 -3.396055e-04 +1.977266e-01 -7.125980e-02
64.909437 +1.926470e-01 -7.576417e-02 +1.936606e-02 -5.668273e-03 -5.296556e-03 -1.695529e-02 +2.314827e-03 -1.743351e-04
         +1.936606e-02 -5.668273e-03 +1.926470e-01 -7.576417e-02 +2.314827e-03 -1.743351e-04 -5.296556e-03 -1.695529e-02
         -5.296556e-03 -1.695529e-02 +2.314827e-03 -1.743351e-04 +1.926470e-01 -7.576417e-02 +1.936606e-02 -5.668273e-03
         +2.314827e-03 -1.743351e-04 -5.296556e-03 -1.695529e-02 +1.936606e-02 -5.668273e-03 +1.926470e-01 -7.576417e-02
65.009375 +1.872686e-01 -7.990721e-02 +1.770829e-02 -1.091017e-02 -5.509996e-03 -1.689029e-02 +2.187838e-03 -7.712107e-04
         +1.770829e-02 -1.091017e-02 +1.872686e-01 -7.990721e-02 +2.187838e-03 -7.712107e-04 -5.509996e-03 -1.689029e-02
         -5.509996e-03 -1.689029e-02 +2.187838e-03 -7.712107e-04 +1.872686e-01 -7.990721e-02 +1.770829e-02 -1.091017e-02
         +2.187838e-03 -7.712107e-04 -5.509996e-03 -1.689029e-02 +1.770829e-02 -1.091017e-02 +1.872686e-01 -7.990721e-02
65.109313 +1.816171e-01 -8.366917e-02 +1.461445e-02 -1.565225e-02 -5.722635e-03 -1.682259e-02 +1.909833e-03 -1.313969e-03
         +1.461445e-02 -1.565225e-02 +1.816171e-01 -8.366917e-02 +1.909833e-03 -1.313969e-03 -5.722635e-03 -1.682259e-02
         -5.722635e-03 -1.682259e-02 +1.909833e-03 -1.313969e-03 +1.816171e-01 -8.366917e-02 +1.461445e-02 -1.565225e-02
         +1.909833e-03 -1.313969e-03 -5.722635e-03 -1.682259e-02 +1.461445e-02 -1.565225e-02 +1.816171e-01 -8.366917e-02
65.209250 +1.757194e-01 -8.703212e-02 +1.023989e-02 -1.949811e-02 -5.934440e-03 -1.675221e-02 +1.500233e-03 -1.765176e-03
         +1.023989e-02 -1.949811e-02 +1.757194e-01 -8.703212e-02 +1.500233e-03 -1.765176e-03 -5.934440e-03 -1.675221e-02
         -5.934440e-03 -1.675221e-02 +1.500233e-03 -1.765176e-03 +1.757194e-01 -8.703212e-02 +1.023989e-02 -1.949811e-02
         +1.500233e-03 -1.765176e-03 -5.934440e-03 -1.675221e-02 +1.023989e-02 -1.949811e-02 +1.757194e-01 -8.703212e-02
65.309187 +1.696037e-01 -8.998000e-02 +4.849676e-03 -2.210080e-02 -6.145377e-03 -1.667915e-02 +9.875265e-04 -2.093775e-03
         +4.849676e-03 -2.210080e-02 +1.696037e-01 -8.998000e-02 +9.875265e-04 -2.093775e-03 -6.145377e-03 -1.667915e-02
         -6.145377e-03 -1.667915e-02 +9.875265e-04 -2.093775e-03 +1.696037e-01 -8.998000e-02 +4.849676e-03 -2.210080e-02
         +9.875265e-04 -2.093775e-03 -6.145377e-03 -1.667915e-02 +4.849676e-03 -2.210080e-02 +1.696037e-01 -8.998000e-02
65.409125 +1.632991e-01 -9.249877e-02 -1.197446e-03 -2.319314e-02 -6.355412e-03 -1.660343e-02 +4.072889e-04 -2.277228e-03
         -1.197446e-03 -2.319314e-02 +1.632991e-01 -9.249877e-02 +4.072889e-04 -2.277228e-03 -6.355412e-03 -1.660343e-02
         -6.355412e-03 -1.660343e-02 +4.072889e-04 -2.277228e-03 +1.632991e-01 -9.249877e-02 -1.197446e-03 -2.319314e-02
         +4.072889e-04 -2.277228e-03 -6.355412e-03 -1.660343e-02 -1.197446e-03 -2.319314e-02 +1.632991e-01 -9.249877e-02
65.509062 +1.568358e-01 -9.457641e-02 -7.473315e-03 -2.261271e-02 -6.564511e-03 -1.652505e-02 -2.002866e-04 -2.303059e-03
         -7.473315e-03 -2.261271e-02 +1.568358e-01 -9.457641e-02 -2.002866e-04 -2.303059e-03 -6.564511e-03 -1.652505e-02
         -6.564511e-03 -1.652505e-02 -2.002866e-04 -2.303059e-03 +1.568358e-01 -9.457641e-02 -7.473315e-03 -2.261271e-02
         -2.002866e-04 -2.303059e-03 -6.564511e-03 -1.652505e-02 -7.473315e-03 -2.261271e-02 +1.568358e-01 -9.457641e-02
65.609000 +1.502444e-01 -9.620302e-02 -1.351121e-02 -2.031955e-02 -6.772641e-03 -1.644404e-02 -7.931737e-04 -2.169701e-03
         -1.351121e-02 -2.031955e-02 +1.502444e-01 -9.620302e-02 -7.931737e-04 -2.169701e-03 -6.772641e-03 -1.644404e-02
         -6.772641e-03 -1.644404e-02 -7.931737e-04 -2.169701e-03 +1.502444e-01 -9.620302e-02 -1.351121e-02 -2.031955e-02
         -7.931737e-04 -2.169701e-03 -6.772641e-03 -1.644404e-02 -1.351121e-02 -2.031955e-02 +1.502444e-01 -9.620302e-02
65.708938 +1.435565e-01 -9.737083e-02 -1.884101e-02 -1.640460e-02 -6.979768e-03 -1.636039e-02 -1.330419e-03 -1.886594e-03
         -1.884101e-02 -1.640460e-02 +1.435565e-01 -9.737083e-02 -1.330419e-03 -1.886594e-03 -6.979768e-03 -1.636039e-02
         -6.979768e-03 -1.636039e-02 -1.330419e-03 -1.886594e-03 +1.435565e-01 -9.737083e-02 -1.884101e-02 -1.640460e-02
         -1.330419e-03 -1.886594e-03 -6.979768e-03 -1.636039e-02 -1.884101e-02 -1.640460e-02 +1.435565e-01 -9.737083e-02
65.808875 +1.368039e-01 -9.807427e-02 -2.302601e-02 -1.108813e-02 -7.185859e-03 -1.627413e-02 -1.774974e-03 -1.473513e-03
         -2.302601e-02 -1.108813e-02 +1.368039e-01 -9.807427e-02 -1.774974e-03 -1.473513e-03 -7.185859e-03 -1.627413e-02
         -7.185859e-03 -1.627413e-02 -1.774974e-03 -1.473513e-03 +1.368039e-01 -9.807427e-02 -2.302601e-02 -1.108813e-02
         -1.774974e-03 -1.473513e-03 -7.185859e-03 -1.627413e-02 -2.302601e-02 -1.108813e-02 +1.368039e-01 -9.807427e-02
65.908812 +1.300189e-01 -9.831000e-02 -2.569837e-02 -4.707808e-03 -7.390880e-03 -1.618527e-02 -2.096246e-03 -9.591853e-04
         -2.569837e-02 -4.707808e-03 +1.300189e-01 -9.831000e-02 -2.096246e-03 -9.591853e-04 -7.390880e-03 -1.618527e-02
         -7.390880e-03 -1.618527e-02 -2.096246e-03 -9.591853e-04 +1.300189e-01 -9.831000e-02 -2.569837e-02 -4.707808e-03
         -2.096246e-03 -9.591853e-04 -7.390880e-03 -1.618527e-02 -2.569837e-02 -4.707808e-03 +1.300189e-01 -9.831000e-02
66.008750 +1.232338e-01 -9.807688e-02 -2.659055e-02 +2.302865e-03 -7.594800e-03 -1.609381e-02 -2.272205e-03 -3.792992e-04
         -2.659055e-02 +2.302865e-03 +1.232338e-01 -9.807688e-02 -2.272205e-03 -3.792992e-04 -7.594800e-03 -1.609381e-02
         -7.594800e-03 -1.609381e-02 -2.272205e-03 -3.792992e-04 +1.232338e-01 -9.807688e-02 -2.659055e-02 +2.302865e-03
         -2.272205e-03 -3.792992e-04 -7.594800e-03 -1.609381e-02 -2.659055e-02 +2.302865e-03 +1.232338e-01 -9.807688e-02
66.108688 +1.164810e-01 -9.737604e-02 -2.555987e-02 +9.444476e-03 -7.797584e-03 -1.599978e-02 -2.290898e-03 +2.259789e-04
         -2.555987e-02 +9.444476e-03 +1.164810e-01 -9.737604e-02 -2.290898e-03 +2.259789e-04 -7.797584e-03 -1.599978e-02
         -7.797584e-03 -1.599978e-02 -2.290898e-03 +2.259789e-04 +1.164810e-01 -9.737604e-02 -2.555987e-02 +9.444476e-03
         -2.290898e-03 +2.259789e-04 -7.797584e-03 -1.599978e-02 -2.555987e-02 +9.444476e-03 +1.164810e-01 -9.737604e-02
66.208625 +1.097926e-01 -9.621080e-02 -2.260420e-02 +1.618773e-02 -7.999201e-03 -1.590319e-02 -2.151254e-03 +8.147839e-04
         -2.260420e-02 +1.618773e-02 +1.097926e-01 -9.621080e-02 -2.151254e-03 +8.147839e-04 -7.999201e-03 -1.590319e-02
         -7.999201e-03 -1.590319e-02 -2.151254e-03 +8.147839e-04 +1.097926e-01 -9.621080e-02 -2.260420e-02 +1.618773e-02
         -2.151254e-03 +8.147839e-04 -7.999201e-03 -1.590319e-02 -2.260420e-02 +1.618773e-02 +1.097926e-01 -9.621080e-02
66.308562 +1.032006e-01 -9.458673e-02 -1.786730e-02 +2.201304e-02 -8.199618e-03 -1.580405e-02 -1.863149e-03 +1.346449e-03
         -1.786730e-02 +2.201304e-02 +1.032006e-01 -9.458673e-02 -1.863149e-03 +1.346449e-03 -8.199618e-03 -1.580405e-02
         -8.199618e-03 -1.580405e-02 -1.863149e-03 +1.346449e-03 +1.032006e-01 -9.458673e-02 -1.786730e-02 +2.201304e-02
         -1.863149e-03 +1.346449e-03 -8.199618e-03 -1.580405e-02 -1.786730e-02 +2.201304e-02 +1.032006e-01 -9.458673e-02
66.408500 +9.673645e-02 -9.251158e-02 -1.163294e-02 +2.645066e-02 -8.398802e-03 -1.570237e-02 -1.446703e-03 +1.784312e-03
         -1.163294e-02 +2.645066e-02 +9.673645e-02 -9.251158e-02 -1.446703e-03 +1.784312e-03 -8.398802e-03 -1.570237e-02
         -8.398802e-03 -1.570237e-02 -1.446703e-03 +1.784312e-03 +9.673645e-02 -9.251158e-02 -1.163294e-02 +2.645066e-02
         -1.446703e-03 +1.784312e-03 -8.398802e-03 -1.570237e-02 -1.163294e-02 +2.645066e-02 +9.673645e-02 -9.251158e-02
66.508437 +9.043091e-02 -8.999524e-02 -4.308129e-03 +2.911821e-02 -8.596722e-03 -1.559818e-02 -9.308788e-04 +2.098249e-03
         -4.308129e-03 +2.911821e-02 +9.043091e-02 -8.999524e-02 -9.308788e-04 +2.098249e-03 -8.596722e-03 -1.559818e-02
         -8.596722e-03 -1.559818e-02 -9.308788e-04 +2.098249e-03 +9.043091e-02 -8.999524e-02 -4.308129e-03 +2.911821e-02
         -9.308788e-04 +2.098249e-03 -8.596722e-03 -1.559818e-02 -4.308129e-03 +2.911821e-02 +9.043091e-02 -8.999524e-02
66.608375 +8.431406e-02 -8.704971e-02 +3.603653e-03 +2.975274e-02 -8.793345e-03 -1.549149e-02 -3.514651e-04 +2.266742e-03
         +3.603653e-03 +2.975274e-02 +8.431406e-02 -8.704971e-02 -3.514651e-04 +2.266742e-03 -8.793345e-03 -1.549149e-02
         -8.793345e-03 -1.549149e-02 -3.514651e-04 +2.266742e-03 +8.431406e-02 -8.704971e-02 +3.603653e-03 +2.975274e-02
         -3.514651e-04 +2.266742e-03 -8.793345e-03 -1.549149e-02 +3.603653e-03 +2.975274e-02 +8.431406e-02 -8.704971e-02
66.708313 +7.841510e-02 -8.368903e-02 +1.153747e-02 +2.823454e-02 -8.988641e-03 -1.538231e-02 +2.514057e-04 +2.278353e-03
         +1.153747e-02 +2.823454e-02 +7.841510e-02 -8.368903e-02 +2.514057e-04 +2.278353e-03 -8.988641e-03 -1.538231e-02
         -8.988641e-03 -1.538231e-02 +2.514057e-04 +2.278353e-03 +7.841510e-02 -8.368903e-02 +1.153747e-02 +2.823454e-02
         +2.514057e-04 +2.278353e-03 -8.988641e-03 -1.538231e-02 +1.153747e-02 +2.823454e-02 +7.841510e-02 -8.368903e-02
66.808250 +7.276214e-02 -7.992924e-02 +1.890762e-02 +2.460082e-02 -9.182577e-03 -1.527066e-02 +8.360378e-04 +2.132506e-03
         +1.890762e-02 +2.460082e-02 +7.276214e-02 -7.992924e-02 +8.360378e-04 +2.132506e-03 -9.182577e-03 -1.527066e-02
         -9.182577e-03 -1.527066e-02 +8.360378e-04 +2.132506e-03 +7.276214e-02 -7.992924e-02 +1.890762e-02 +2.460082e-02
         +8.360378e-04 +2.132506e-03 -9.182577e-03 -1.527066e-02 +1.890762e-02 +2.460082e-02 +7.276214e-02 -7.992924e-02
66.908187 +6.738216e-02 -7.578827e-02 +2.515109e-02 +1.904783e-02 -9.375122e-03 -1.515656e-02 +1.362056e-03 +1.839507e-03
         +2.515109e-02 +1.904783e-02 +6.738216e-02 -7.578827e-02 +1.362056e-03 +1.839507e-03 -9.375122e-03 -1.515656e-02
         -9.375122e-03 -1.515656e-02 +1.362056e-03 +1.839507e-03 +6.738216e-02 -7.578827e-02 +2.515109e-02 +1.904783e-02
         +1.362056e-03 +1.839507e-03 -9.375122e-03 -1.515656e-02 +2.515109e-02 +1.904783e-02 +6.738216e-02 -7.578827e-02
67.008125 +6.230080e-02 -7.128586e-02 +2.977056e-02 +1.192099e-02 -9.566245e-03 -1.504003e-02 +1.793192e-03 +1.419815e-03
         +2.977056e-02 +1.192099e-02 +6.230080e-02 -7.128586e-02 +1.793192e-03 +1.419815e-03 -9.566245e-03 -1.504003e-02
         -9.566245e-03 -1.504003e-02 +1.793192e-03 +1.419815e-03 +6.230080e-02 -7.128586e-02 +2.977056e-02 +1.192099e-02
         +1.793192e-03 +1.419815e-03 -9.566245e-03 -1.504003e-02 +2.977056e-02 +1.192099e-02 +6.230080e-02 -7.128586e-02
67.108063 +5.754229e-02 -6.644349e-02 +3.237363e-02 +3.693532e-03 -9.755916e-03 -1.492108e-02 +2.099791e-03 +9.026169e-04
         +3.237363e-02 +3.693532e-03 +5.754229e-02 -6.644349e-02 +2.099791e-03 +9.026169e-04 -9.755916e-03 -1.492108e-02
         -9.755916e-03 -1.492108e-02 +2.099791e-03 +9.026169e-04 +5.754229e-02 -6.644349e-02 +3.237363e-02 +3.693532e-03
         +2.099791e-03 +9.026169e-04 -9.755916e-03 -1.492108e-02 +3.237363e-02 +3.693532e-03 +5.754229e-02 -6.644349e-02
67.208000 +5.312934e-02 -6.128424e-02 +3.270528e-02 -5.065133e-03 -9.944103e-03 -1.479973e-02 +2.260844e-03 +3.237951e-04
         +3.270528e-02 -5.065133e-03 +5.312934e-02 -6.128424e-02 +2.260844e-03 +3.237951e-04 -9.944103e-03 -1.479973e-02
         -9.944103e-03 -1.479973e-02 +2.260844e-03 +3.237951e-04 +5.312934e-02 -6.128424e-02 +3.270528e-02 -5.065133e-03
         +2.260844e-03 +3.237951e-04 -9.944103e-03 -1.479973e-02 +3.270528e-02 -5.065133e-03 +5.312934e-02 -6.128424e-02
67.307937 +4.908299e-02 -5.583273e-02 +3.067081e-02 -1.372907e-02 -1.013078e-02 -1.467600e-02 +2.265433e-03 -2.765610e-04
         +3.067081e-02 -1.372907e-02 +4.908299e-02 -5.583273e-02 +2.265433e-03 -2.765610e-04 -1.013078e-02 -1.467600e-02
         -1.013078e-02 -1.467600e-02 +2.265433e-03 -2.765610e-04 +4.908299e-02 -5.583273e-02 +3.067081e-02 -1.372907e-02
         +2.265433e-03 -2.765610e-04 -1.013078e-02 -1.467600e-02 +3.067081e-02 -1.372907e-02 +4.908299e-02 -5.583273e-02
67.407875 +4.542254e-02 -5.011496e-02 +2.634750e-02 -2.166079e-02 -1.031591e-02 -1.454991e-02 +2.113468e-03 -8.569318e-04
         +2.634750e-02 -2.166079e-02 +4.542254e-02 -5.011496e-02 +2.113468e-03 -8.569318e-04 -1.031591e-02 -1.454991e-02
         -1.031591e-02 -1.454991e-02 +2.113468e-03 -8.569318e-04 +4.542254e-02 -5.011496e-02 +2.634750e-02 -2.166079e-02
         +2.113468e-03 -8.569318e-04 -1.031591e-02 -1.454991e-02 +2.634750e-02 -2.166079e-02 +4.542254e-02 -5.011496e-02
67.507812 +4.216543e-02 -4.415818e-02 +1.998363e-02 -2.825827e-02 -1.049946e-02 -1.442148e-02 +1.815680e-03 -1.377240e-03
         +1.998363e-02 -2.825827e-02 +4.216543e-02 -4.415818e-02 +1.815680e-03 -1.377240e-03 -1.049946e-02 -1.442148e-02
         -1.049946e-02 -1.442148e-02 +1.815680e-03 -1.377240e-03 +4.216543e-02 -4.415818e-02 +1.998363e-02 -2.825827e-02
         +1.815680e-03 -1.377240e-03 -1.049946e-02 -1.442148e-02 +1.998363e-02 -2.825827e-02 +4.216543e-02 -4.415818e-02
67.607750 +3.932721e-02 -3.799081e-02 +1.198480e-02 -3.300053e-02 -1.068142e-02 -1.429072e-02 +1.392859e-03 -1.801616e-03
         +1.198480e-02 -3.300053e-02 +3.932721e-02 -3.799081e-02 +1.392859e-03 -1.801616e-03 -1.068142e-02 -1.429072e-02
         -1.068142e-02 -1.429072e-02 +1.392859e-03 -1.801616e-03 +3.932721e-02 -3.799081e-02 +1.198480e-02 -3.300053e-02
         +1.392859e-03 -1.801616e-03 -1.068142e-02 -1.429072e-02 +1.198480e-02 -3.300053e-02 +3.932721e-02 -3.799081e-02
67.707688 +3.692141e-02 -3.164226e-02 +2.888189e-03 -3.548842e-02 -1.086173e-02 -1.415767e-02 +8.744090e-04 -2.100876e-03
         +2.888189e-03 -3.548842e-02 +3.692141e-02 -3.164226e-02 +8.744090e-04 -2.100876e-03 -1.086173e-02 -1.415767e-02
         -1.086173e-02 -1.415767e-02 +8.744090e-04 -2.100876e-03 +3.692141e-02 -3.164226e-02 +2.888189e-03 -3.548842e-02
         +8.744090e-04 -2.100876e-03 -1.086173e-02 -1.415767e-02 +2.888189e-03 -3.548842e-02 +3.692141e-02 -3.164226e-02
67.807625 +3.495951e-02 -2.514281e-02 -6.673624e-03 -3.547725e-02 -1.104039e-02 -1.402233e-02 +2.962969e-04 -2.254520e-03
         -6.673624e-03 -3.547725e-02 +3.495951e-02 -2.514281e-02 +2.962969e-04 -2.254520e-03 -1.104039e-02 -1.402233e-02
         -1.104039e-02 -1.402233e-02 +2.962969e-04 -2.254520e-03 +3.495951e-02 -2.514281e-02 -6.673624e-03 -3.547725e-02
         +2.962969e-04 -2.254520e-03 -1.104039e-02 -1.402233e-02 -6.673624e-03 -3.547725e-02 +3.495951e-02 -2.514281e-02
67.907562 +3.345085e-02 -1.852346e-02 -1.601680e-02 -3.289900e-02 -1.121736e-02 -1.388473e-02 -3.014388e-04 -2.252147e-03
         -1.601680e-02 -3.289900e-02 +3.345085e-02 -1.852346e-02 -3.014388e-04 -2.252147e-03 -1.121736e-02 -1.388473e-02
         -1.121736e-02 -1.388473e-02 -3.014388e-04 -2.252147e-03 +3.345085e-02 -1.852346e-02 -1.601680e-02 -3.289900e-02
         -3.014388e-04 -2.252147e-03 -1.121736e-02 -1.388473e-02 -1.601680e-02 -3.289900e-02 +3.345085e-02 -1.852346e-02
68.007500 +3.240264e-02 -1.181576e-02 -2.445526e-02 -2.787183e-02 -1.139261e-02 -1.374490e-02 -8.774627e-04 -2.094151e-03
         -2.445526e-02 -2.787183e-02 +3.240264e-02 -1.181576e-02 -8.774627e-04 -2.094151e-03 -1.139261e-02 -1.374490e-02
         -1.139261e-02 -1.374490e-02 -8.774627e-04 -2.094151e-03 +3.240264e-02 -1.181576e-02 -2.445526e-02 -2.787183e-02
         -8.774627e-04 -2.094151e-03 -1.139261e-02 -1.374490e-02 -2.445526e-02 -2.787183e-02 +3.240264e-02 -1.181576e-02
68.107438 +3.181988e-02 -5.051718e-03 -3.135110e-02 -2.069623e-02 -1.156610e-02 -1.360284e-02 -1.392001e-03 -1.791678e-03
         -3.135110e-02 -2.069623e-02 +3.181988e-02 -5.051718e-03 -1.392001e-03 -1.791678e-03 -1.156610e-02 -1.360284e-02
         -1.156610e-02 -1.360284e-02 -1.392001e-03 -1.791678e-03 +3.181988e-02 -5.051718e-03 -3.135110e-02 -2.069623e-02
         -1.392001e-03 -1.791678e-03 -1.156610e-02 -1.360284e-02 -3.135110e-02 -2.069623e-02 +3.181988e-02 -5.051718e-03
68.207375 +3.170534e-02 +1.736419e-03 -3.616264e-02 -1.183750e-02 -1.173783e-02 -1.345860e-02 -1.809587e-03 -1.365846e-03
         -3.616264e-02 -1.183750e-02 +3.170534e-02 +1.736419e-03 -1.809587e-03 -1.365846e-03 -1.173783e-02 -1.345860e-02
         -1.173783e-02 -1.345860e-02 -1.809587e-03 -1.365846e-03 +3.170534e-02 +1.736419e-03 -3.616264e-02 -1.183750e-02
         -1.809587e-03 -1.365846e-03 -1.173783e-02 -1.345860e-02 -3.616264e-02 -1.183750e-02 +3.170534e-02 +1.736419e-03
68.307312 +3.205956e-02 +8.516274e-03 -3.848659e-02 -1.895747e-03 -1.190775e-02 -1.331217e-02 -2.101508e-03 -8.462646e-04
         -3.848659e-02 -1.895747e-03 +3.205956e-02 +8.516274e-03 -2.101508e-03 -8.462646e-04 -1.190775e-02 -1.331217e-02
         -1.190775e-02 -1.331217e-02 -2.101508e-03 -8.462646e-04 +3.205956e-02 +8.516274e-03 -3.848659e-02 -1.895747e-03
         -2.101508e-03 -8.462646e-04 -1.190775e-02 -1.331217e-02 -3.848659e-02 -1.895747e-03 +3.205956e-02 +8.516274e-03
68.407250 +3.288087e-02 +1.525552e-02 -3.809104e-02 +8.434723e-03 -1.207583e-02 -1.316360e-02 -2.247777e-03 -2.689783e-04
         -3.809104e-02 +8.434723e-03 +3.288087e-02 +1.525552e-02 -2.247777e-03 -2.689783e-04 -1.207583e-02 -1.316360e-02
         -1.207583e-02 -1.316360e-02 -2.247777e-03 -2.689783e-04 +3.288087e-02 +1.525552e-02 -3.809104e-02 +8.434723e-03
         -2.247777e-03 -2.689783e-04 -1.207583e-02 -1.316360e-02 -3.809104e-02 +8.434723e-03 +3.288087e-02 +1.525552e-02
68.507188 +3.416534e-02 +2.192200e-02 -3.493663e-02 +1.841400e-02 -1.224206e-02 -1.301290e-02 -2.238505e-03 +3.260339e-04
         -3.493663e-02 +1.841400e-02 +3.416534e-02 +2.192200e-02 -2.238505e-03 +3.260339e-04 -1.224206e-02 -1.301290e-02
         -1.224206e-02 -1.301290e-02 -2.238505e-03 +3.260339e-04 +3.416534e-02 +2.192200e-02 -3.493663e-02 +1.841400e-02
         -2.238505e-03 +3.260339e-04 -1.224206e-02 -1.301290e-02 -3.493663e-02 +1.841400e-02 +3.416534e-02 +2.192200e-02
68.607125 +3.590685e-02 +2.848394e-02 -2.918412e-02 +2.730959e-02 -1.240640e-02 -1.286009e-02 -2.074563e-03 +8.976274e-04
         -2.918412e-02 +2.730959e-02 +3.590685e-02 +2.848394e-02 -2.074563e-03 +8.976274e-04 -1.240640e-02 -1.286009e-02
         -1.240640e-02 -1.286009e-02 -2.074563e-03 +8.976274e-04 +3.590685e-02 +2.848394e-02 -2.918412e-02 +2.730959e-02
         -2.074563e-03 +8.976274e-04 -1.240640e-02 -1.286009e-02 -2.918412e-02 +2.730959e-02 +3.590685e-02 +2.848394e-02
68.707062 +3.809709e-02 +3.491004e-02 -2.118741e-02 +3.445014e-02 -1.256884e-02 -1.270521e-02 -1.767512e-03 +1.406338e-03
         -2.118741e-02 +3.445014e-02 +3.809709e-02 +3.491004e-02 -1.767512e-03 +1.406338e-03 -1.256884e-02 -1.270521e-02
         -1.256884e-02 -1.270521e-02 -1.767512e-03 +1.406338e-03 +3.809709e-02 +3.491004e-02 -2.118741e-02 +3.445014e-02
         -1.767512e-03 +1.406338e-03 -1.256884e-02 -1.270521e-02 -2.118741e-02 +3.445014e-02 +3.809709e-02 +3.491004e-02
68.807000 +4.072562e-02 +4.116966e-02 -1.147230e-02 +3.927599e-02 -1.272933e-02 -1.254826e-02 -1.338786e-03 +1.817106e-03
         -1.147230e-02 +3.927599e-02 +4.072562e-02 +4.116966e-02 -1.338786e-03 +1.817106e-03 -1.272933e-02 -1.254826e-02
         -1.272933e-02 -1.254826e-02 -1.338786e-03 +1.817106e-03 +4.072562e-02 +4.116966e-02 -1.147230e-02 +3.927599e-02
         -1.338786e-03 +1.817106e-03 -1.272933e-02 -1.254826e-02 -1.147230e-02 +3.927599e-02 +4.072562e-02 +4.116966e-02
68.906937 +4.377990e-02 +4.723293e-02 -7.021072e-04 +4.138268e-02 -1.288785e-02 -1.238929e-02 -8.181927e-04 +2.101693e-03
         -7.021072e-04 +4.138268e-02 +4.377990e-02 +4.723293e-02 -8.181927e-04 +2.101693e-03 -1.288785e-02 -1.238929e-02
         -1.288785e-02 -1.238929e-02 -8.181927e-04 +2.101693e-03 +4.377990e-02 +4.723293e-02 -7.021072e-04 +4.138268e-02
         -8.181927e-04 +2.101693e-03 -1.288785e-02 -1.238929e-02 -7.021072e-04 +4.138268e-02 +4.377990e-02 +4.723293e-02
69.006875 +4.724536e-02 +5.307095e-02 +1.036752e-02 +4.055409e-02 -1.304439e-02 -1.222831e-02 -2.418467e-04 +2.240622e-03
         +1.036752e-02 +4.055409e-02 +4.724536e-02 +5.307095e-02 -2.418467e-04 +2.240622e-03 -1.304439e-02 -1.222831e-02
         -1.304439e-02 -1.222831e-02 -2.418467e-04 +2.240622e-03 +4.724536e-02 +5.307095e-02 +1.036752e-02 +4.055409e-02
         -2.418467e-04 +2.240622e-03 -1.304439e-02 -1.222831e-02 +1.036752e-02 +4.055409e-02 +4.724536e-02 +5.307095e-02
69.106813 +5.110549e-02 +5.865587e-02 +2.094166e-02 +3.678261e-02 -1.319891e-02 -1.206534e-02 +3.503407e-04 +2.224514e-03
         +2.094166e-02 +3.678261e-02 +5.110549e-02 +5.865587e-02 +3.503407e-04 +2.224514e-03 -1.319891e-02 -1.206534e-02
         -1.319891e-02 -1.206534e-02 +3.503407e-04 +2.224514e-03 +5.110549e-02 +5.865587e-02 +2.094166e-02 +3.678261e-02
         +3.503407e-04 +2.224514e-03 -1.319891e-02 -1.206534e-02 +2.094166e-02 +3.678261e-02 +5.110549e-02 +5.865587e-02
69.206750 +5.534186e-02 +6.396107e-02 +3.024318e-02 +3.027447e-02 -1.335139e-02 -1.190042e-02 +9.174233e-04 +2.054715e-03
         +3.024318e-02 +3.027447e-02 +5.534186e-02 +6.396107e-02 +9.174233e-04 +2.054715e-03 -1.335139e-02 -1.190042e-02
         -1.335139e-02 -1.190042e-02 +9.174233e-04 +2.054715e-03 +5.534186e-02 +6.396107e-02 +3.024318e-02 +3.027447e-02
         +9.174233e-04 +2.054715e-03 -1.335139e-02 -1.190042e-02 +3.024318e-02 +3.027447e-02 +5.534186e-02 +6.396107e-02
69.306687 +5.993428e-02 +6.896123e-02 +3.756989e-02 +2.143956e-02 -1.350180e-02 -1.173356e-02 +1.420252e-03 +1.743192e-03
         +3.756989e-02 +2.143956e-02 +5.993428e-02 +6.896123e-02 +1.420252e-03 +1.743192e-03 -1.350180e-02 -1.173356e-02
         -1.350180e-02 -1.173356e-02 +1.420252e-03 +1.743192e-03 +5.993428e-02 +6.896123e-02 +3.756989e-02 +2.143956e-02
         +1.420252e-03 +1.743192e-03 -1.350180e-02 -1.173356e-02 +3.756989e-02 +2.143956e-02 +5.993428e-02 +6.896123e-02
69.406625 +6.486084e-02 +7.363251e-02 +4.234743e-02 +1.086615e-02 -1.365012e-02 -1.156480e-02 +1.824177e-03 +1.311688e-03
         +4.234743e-02 +1.086615e-02 +6.486084e-02 +7.363251e-02 +1.824177e-03 +1.311688e-03 -1.365012e-02 -1.156480e-02
         -1.365012e-02 -1.156480e-02 +1.824177e-03 +1.311688e-03 +6.486084e-02 +7.363251e-02 +4.234743e-02 +1.086615e-02
         +1.824177e-03 +1.311688e-03 -1.365012e-02 -1.156480e-02 +4.234743e-02 +1.086615e-02 +6.486084e-02 +7.363251e-02
69.506563 +7.009806e-02 +7.795264e-02 +4.417404e-02 -7.180491e-04 -1.379633e-02 -1.139416e-02 +2.101436e-03 +7.902022e-04
         +4.417404e-02 -7.180491e-04 +7.009806e-02 +7.795264e-02 +2.101436e-03 +7.902022e-04 -1.379633e-02 -1.139416e-02
         -1.379633e-02 -1.139416e-02 +2.101436e-03 +7.902022e-04 +7.009806e-02 +7.795264e-02 +4.417404e-02 -7.180491e-04
         +2.101436e-03 +7.902022e-04 -1.379633e-02 -1.139416e-02 +4.417404e-02 -7.180491e-04 +7.009806e-02 +7.795264e-02
69.606500 +7.562095e-02 +8.190101e-02 +4.285374e-02 -1.249589e-02 -1.394039e-02 -1.122167e-02 +2.233063e-03 +2.149093e-04
         +4.285374e-02 -1.249589e-02 +7.562095e-02 +8.190101e-02 +2.233063e-03 +2.149093e-04 -1.394039e-02 -1.122167e-02
         -1.394039e-02 -1.122167e-02 +2.233063e-03 +2.149093e-04 +7.562095e-02 +8.190101e-02 +4.285374e-02 -1.249589e-02
         +2.233063e-03 +2.149093e-04 -1.394039e-02 -1.122167e-02 +4.285374e-02 -1.249589e-02 +7.562095e-02 +8.190101e-02
69.706437 +8.140317e-02 +8.545879e-02 +3.841510e-02 -2.361842e-02 -1.408230e-02 -1.104735e-02 +2.210184e-03 -3.743544e-04
         +3.841510e-02 -2.361842e-02 +8.140317e-02 +8.545879e-02 +2.210184e-03 -3.743544e-04 -1.408230e-02 -1.104735e-02
         -1.408230e-02 -1.104735e-02 +2.210184e-03 -3.743544e-04 +8.140317e-02 +8.545879e-02 +3.841510e-02 -2.361842e-02
         +2.210184e-03 -3.743544e-04 -1.408230e-02 -1.104735e-02 +3.841510e-02 -2.361842e-02 +8.140317e-02 +8.545879e-02
69.806375 +8.741715e-02 +8.860901e-02 +3.111409e-02 -3.326616e-02 -1.422202e-02 -1.087124e-02 +2.034617e-03 -9.368478e-04
         +3.111409e-02 -3.326616e-02 +8.741715e-02 +8.860901e-02 +2.034617e-03 -9.368478e-04 -1.422202e-02 -1.087124e-02
         -1.422202e-02 -1.087124e-02 +2.034617e-03 -9.368478e-04 +8.741715e-02 +8.860901e-02 +3.111409e-02 -3.326616e-02
         +2.034617e-03 -9.368478e-04 -1.422202e-02 -1.087124e-02 +3.111409e-02 -3.326616e-02 +8.741715e-02 +8.860901e-02
69.906312 +9.363421e-02 +9.133666e-02 +2.142029e-02 -4.070955e-02 -1.435953e-02 -1.069335e-02 +1.718728e-03 -1.433742e-03
         +2.142029e-02 -4.070955e-02 +9.363421e-02 +9.133666e-02 +1.718728e-03 -1.433742e-03 -1.435953e-02 -1.069335e-02
         -1.435953e-02 -1.069335e-02 +1.718728e-03 -1.433742e-03 +9.363421e-02 +9.133666e-02 +2.142029e-02 -4.070955e-02
         +1.718728e-03 -1.433742e-03 -1.435953e-02 -1.069335e-02 +2.142029e-02 -4.070955e-02 +9.363421e-02 +9.133666e-02
70.006250 +1.000247e-01 +9.362872e-02 +9.987183e-03 -4.536412e-02 -1.449481e-02 -1.051372e-02 +1.284562e-03 -1.830802e-03
         +9.987183e-03 -4.536412e-02 +1.000247e-01 +9.362872e-02 +1.284562e-03 -1.830802e-03 -1.449481e-02 -1.051372e-02
         -1.449481e-02 -1.051372e-02 +1.284562e-03 -1.830802e-03 +1.000247e-01 +9.362872e-02 +9.987183e-03 -4.536412e-02
         +1.284562e-03 -1.830802e-03 -1.449481e-02 -1.051372e-02 +9.987183e-03 -4.536412e-02 +1.000247e-01 +9.362872e-02
70.106188 +1.065581e-01 +9.547427e-02 -2.391699e-03 -4.683628e-02 -1.462784e-02 -1.033237e-02 +7.623017e-04 -2.100742e-03
         -2.391699e-03 -4.683628e-02 +1.065581e-01 +9.547427e-02 +7.623017e-04 -2.100742e-03 -1.462784e-02 -1.033237e-02
         -1.462784e-02 -1.033237e-02 +7.623017e-04 -2.100742e-03 +1.065581e-01 +9.547427e-02 -2.391699e-03 -4.683628e-02
         +7.623017e-04 -2.100742e-03 -1.462784e-02 -1.033237e-02 -2.391699e-03 -4.683628e-02 +1.065581e-01 +9.547427e-02
70.206125 +1.132034e-01 +9.686449e-02 -1.483780e-02 -4.495600e-02 -1.475860e-02 -1.014933e-02 +1.881732e-04 -2.225105e-03
         -1.483780e-02 -4.495600e-02 +1.132034e-01 +9.686449e-02 +1.881732e-04 -2.225105e-03 -1.475860e-02 -1.014933e-02
         -1.475860e-02 -1.014933e-02 +1.881732e-04 -2.225105e-03 +1.132034e-01 +9.686449e-02 -1.483780e-02 -4.495600e-02
         +1.881732e-04 -2.225105e-03 -1.475860e-02 -1.014933e-02 -1.483780e-02 -4.495600e-02 +1.132034e-01 +9.686449e-02
70.306062 +1.199287e-01 +9.779277e-02 -2.644998e-02 -3.979395e-02 -1.488706e-02 -9.964642e-03 -3.980700e-04 -2.195524e-03
         -2.644998e-02 -3.979395e-02 +1.199287e-01 +9.779277e-02 -3.980700e-04 -2.195524e-03 -1.488706e-02 -9.964642e-03
         -1.488706e-02 -9.964642e-03 -3.980700e-04 -2.195524e-03 +1.199287e-01 +9.779277e-02 -2.644998e-02 -3.979395e-02
         -3.980700e-04 -2.195524e-03 -1.488706e-02 -9.964642e-03 -2.644998e-02 -3.979395e-02 +1.199287e-01 +9.779277e-02
70.406000 +1.267021e-01 +9.825467e-02 -3.636997e-02 -3.166115e-02 -1.501320e-02 -9.778320e-03 -9.558986e-04 -2.014279e-03
         -3.636997e-02 -3.166115e-02 +1.267021e-01 +9.825467e-02 -9.558986e-04 -2.014279e-03 -1.501320e-02 -9.778320e-03
         -1.501320e-02 -9.778320e-03 -9.558986e-04 -2.014279e-03 +1.267021e-01 +9.825467e-02 -3.636997e-02 -3.166115e-02
         -9.558986e-04 -2.014279e-03 -1.501320e-02 -9.778320e-03 -3.636997e-02 -3.166115e-02 +1.267021e-01 +9.825467e-02
70.505938 +1.334912e-01 +9.824799e-02 -4.384597e-02 -2.109117e-02 -1.513700e-02 -9.590397e-03 -1.446809e-03 -1.694131e-03
         -4.384597e-02 -2.109117e-02 +1.334912e-01 +9.824799e-02 -1.446809e-03 -1.694131e-03 -1.513700e-02 -9.590397e-03
         -1.513700e-02 -9.590397e-03 -1.446809e-03 -1.694131e-03 +1.334912e-01 +9.824799e-02 -4.384597e-02 -2.109117e-02
         -1.446809e-03 -1.694131e-03 -1.513700e-02 -9.590397e-03 -4.384597e-02 -2.109117e-02 +1.334912e-01 +9.824799e-02
70.605875 +1.402637e-01 +9.777276e-02 -4.828981e-02 -8.805418e-03 -1.525845e-02 -9.400903e-03 -1.836984e-03 -1.257418e-03
         -4.828981e-02 -8.805418e-03 +1.402637e-01 +9.777276e-02 -1.836984e-03 -1.257418e-03 -1.525845e-02 -9.400903e-03
         -1.525845e-02 -9.400903e-03 -1.836984e-03 -1.257418e-03 +1.402637e-01 +9.777276e-02 -4.828981e-02 -8.805418e-03
         -1.836984e-03 -1.257418e-03 -1.525845e-02 -9.400903e-03 -4.828981e-02 -8.805418e-03 +1.402637e-01 +9.777276e-02
70.705812 +1.469872e-01 +9.683126e-02 -4.932318e-02 +4.335917e-03 -1.537751e-02 -9.209869e-03 -2.099616e-03 -7.344998e-04
         -4.932318e-02 +4.335917e-03 +1.469872e-01 +9.683126e-02 -2.099616e-03 -7.344998e-04 -1.537751e-02 -9.209869e-03
         -1.537751e-02 -9.209869e-03 -2.099616e-03 -7.344998e-04 +1.469872e-01 +9.683126e-02 -4.932318e-02 +4.335917e-03
         -2.099616e-03 -7.344998e-04 -1.537751e-02 -9.209869e-03 -4.932318e-02 +4.335917e-03 +1.469872e-01 +9.683126e-02
70.805750 +1.536296e-01 +9.542796e-02 -4.680942e-02 +1.739422e-02 -1.549418e-02 -9.017322e-03 -2.216758e-03 -1.616450e-04
         -4.680942e-02 +1.739422e-02 +1.536296e-01 +9.542796e-02 -2.216758e-03 -1.616450e-04 -1.549418e-02 -9.017322e-03
         -1.549418e-02 -9.017322e-03 -2.216758e-03 -1.616450e-04 +1.536296e-01 +9.542796e-02 -4.680942e-02 +1.739422e-02
         -2.216758e-03 -1.616450e-04 -1.549418e-02 -9.017322e-03 -4.680942e-02 +1.739422e-02 +1.536296e-01 +9.542796e-02
70.905687 +1.601594e-01 +9.356957e-02 -4.086811e-02 +2.941971e-02 -1.560843e-02 -8.823295e-03 -2.180542e-03 +4.214831e-04
         -4.086811e-02 +2.941971e-02 +1.601594e-01 +9.356957e-02 -2.180542e-03 +4.214831e-04 -1.560843e-02 -8.823295e-03
         -1.560843e-02 -8.823295e-03 -2.180542e-03 +4.214831e-04 +1.601594e-01 +9.356957e-02 -4.086811e-02 +2.941971e-02
         -2.180542e-03 +4.214831e-04 -1.560843e-02 -8.823295e-03 -4.086811e-02 +2.941971e-02 +1.601594e-01 +9.356957e-02
71.005625 +1.665454e-01 +9.126494e-02 -3.187110e-02 +3.952088e-02 -1.572025e-02 -8.627817e-03 -1.993710e-03 +9.745735e-04
         -3.187110e-02 +3.952088e-02 +1.665454e-01 +9.126494e-02 -1.993710e-03 +9.745735e-04 -1.572025e-02 -8.627817e-03
         -1.572025e-02 -8.627817e-03 -1.993710e-03 +9.745735e-04 +1.665454e-01 +9.126494e-02 -3.187110e-02 +3.952088e-02
         -1.993710e-03 +9.745735e-04 -1.572025e-02 -8.627817e-03 -3.187110e-02 +3.952088e-02 +1.665454e-01 +9.126494e-02
71.105563 +1.727571e-01 +8.852506e-02 -2.041983e-02 +4.693093e-02 -1.582961e-02 -8.430918e-03 -1.669409e-03 +1.459454e-03
         -2.041983e-02 +4.693093e-02 +1.727571e-01 +8.852506e-02 -1.669409e-03 +1.459454e-03 -1.582961e-02 -8.430918e-03
         -1.582961e-02 -8.430918e-03 -1.669409e-03 +1.459454e-03 +1.727571e-01 +8.852506e-02 -2.041983e-02 +4.693093e-02
         -1.669409e-03 +1.459454e-03 -1.582961e-02 -8.430918e-03 -2.041983e-02 +4.693093e-02 +1.727571e-01 +8.852506e-02
71.205500 +1.787649e-01 +8.536301e-02 -7.305387e-03 +5.106624e-02 -1.593651e-02 -8.232631e-03 -1.230265e-03 +1.842726e-03
         -7.305387e-03 +5.106624e-02 +1.787649e-01 +8.536301e-02 -1.230265e-03 +1.842726e-03 -1.593651e-02 -8.232631e-03
         -1.593651e-02 -8.232631e-03 -1.230265e-03 +1.842726e-03 +1.787649e-01 +8.536301e-02 -7.305387e-03 +5.106624e-02
         -1.230265e-03 +1.842726e-03 -1.593651e-02 -8.232631e-03 -7.305387e-03 +5.106624e-02 +1.787649e-01 +8.536301e-02
71.305437 +1.845401e-01 +8.179386e-02 +6.546272e-03 +5.157248e-02 -1.604091e-02 -8.032985e-03 -7.068045e-04 +2.098065e-03
         +6.546272e-03 +5.157248e-02 +1.845401e-01 +8.179386e-02 -7.068045e-04 +2.098065e-03 -1.604091e-02 -8.032985e-03
         -1.604091e-02 -8.032985e-03 -7.068045e-04 +2.098065e-03 +1.845401e-01 +8.179386e-02 +6.546272e-03 +5.157248e-02
         -7.068045e-04 +2.098065e-03 -1.604091e-02 -8.032985e-03 +6.546272e-03 +5.157248e-02 +1.845401e-01 +8.179386e-02
71.405375 +1.900552e-01 +7.783463e-02 +2.013994e-02 +4.835457e-02 -1.614280e-02 -7.832013e-03 -1.353311e-04 +2.208028e-03
         +2.013994e-02 +4.835457e-02 +1.900552e-01 +7.783463e-02 -1.353311e-04 +2.208028e-03 -1.614280e-02 -7.832013e-03
         -1.614280e-02 -7.832013e-03 -1.353311e-04 +2.208028e-03 +1.900552e-01 +7.783463e-02 +2.013994e-02 +4.835457e-02
         -1.353311e-04 +2.208028e-03 -1.614280e-02 -7.832013e-03 +2.013994e-02 +4.835457e-02 +1.900552e-01 +7.783463e-02
71.505313 +1.952839e-01 +7.350421e-02 +3.248311e-02 +4.158799e-02 -1.624217e-02 -7.629745e-03 +4.445894e-04 +2.165247e-03
         +3.248311e-02 +4.158799e-02 +1.952839e-01 +7.350421e-02 +4.445894e-04 +2.165247e-03 -1.624217e-02 -7.629745e-03
         -1.624217e-02 -7.629745e-03 +4.445894e-04 +2.165247e-03 +1.952839e-01 +7.350421e-02 +3.248311e-02 +4.158799e-02
         +4.445894e-04 +2.165247e-03 -1.624217e-02 -7.629745e-03 +3.248311e-02 +4.158799e-02 +1.952839e-01 +7.350421e-02
71.605250 +2.002013e-01 +6.882324e-02 +4.265894e-02 +3.171038e-02 -1.633900e-02 -7.426214e-03 +9.928707e-04 +1.972920e-03
         +4.265894e-02 +3.171038e-02 +2.002013e-01 +6.882324e-02 +9.928707e-04 +1.972920e-03 -1.633900e-02 -7.426214e-03
         -1.633900e-02 -7.426214e-03 +9.928707e-04 +1.972920e-03 +2.002013e-01 +6.882324e-02 +4.265894e-02 +3.171038e-02
         +9.928707e-04 +1.972920e-03 -1.633900e-02 -7.426214e-03 +4.265894e-02 +3.171038e-02 +2.002013e-01 +6.882324e-02
71.705187 +2.047838e-01 +6.381406e-02 +4.989484e-02 +1.939358e-02 -1.643327e-02 -7.221452e-03 +1.471677e-03 +1.644574e-03
         +4.989484e-02 +1.939358e-02 +2.047838e-01 +6.381406e-02 +1.471677e-03 +1.644574e-03 -1.643327e-02 -7.221452e-03
         -1.643327e-02 -7.221452e-03 +1.471677e-03 +1.644574e-03 +2.047838e-01 +6.381406e-02 +4.989484e-02 +1.939358e-02
         +1.471677e-03 +1.644574e-03 -1.643327e-02 -7.221452e-03 +4.989484e-02 +1.939358e-02 +2.047838e-01 +6.381406e-02
71.805125 +2.090098e-01 +5.850054e-02 +5.362152e-02 +5.497843e-03 -1.652497e-02 -7.015490e-03 +1.848031e-03 +1.203113e-03
         +5.362152e-02 +5.497843e-03 +2.090098e-01 +5.850054e-02 +1.848031e-03 +1.203113e-03 -1.652497e-02 -7.015490e-03
         -1.652497e-02 -7.015490e-03 +1.848031e-03 +1.203113e-03 +2.090098e-01 +5.850054e-02 +5.362152e-02 +5.497843e-03
         +1.848031e-03 +1.203113e-03 -1.652497e-02 -7.015490e-03 +5.362152e-02 +5.497843e-03 +2.090098e-01 +5.850054e-02
71.905062 +2.128589e-01 +5.290804e-02 +5.351793e-02 -8.988472e-03 -1.661409e-02 -6.808362e-03 +2.096092e-03 +6.792238e-04
         +5.351793e-02 -8.988472e-03 +2.128589e-01 +5.290804e-02 +2.096092e-03 +6.792238e-04 -1.661409e-02 -6.808362e-03
         -1.661409e-02 -6.808362e-03 +2.096092e-03 +6.792238e-04 +2.128589e-01 +5.290804e-02 +5.351793e-02 -8.988472e-03
         +2.096092e-03 +6.792238e-04 -1.661409e-02 -6.808362e-03 +5.351793e-02 -8.988472e-03 +2.128589e-01 +5.290804e-02
72.005000 +2.163129e-01 +4.706321e-02 +4.953854e-02 -2.301976e-02 -1.670060e-02 -6.600099e-03 +2.198922e-03 +1.092380e-04
         +4.953854e-02 -2.301976e-02 +2.163129e-01 +4.706321e-02 +2.198922e-03 +1.092380e-04 -1.670060e-02 -6.600099e-03
         -1.670060e-02 -6.600099e-03 +2.198922e-03 +1.092380e-04 +2.163129e-01 +4.706321e-02 +4.953854e-02 -2.301976e-02
         +2.198922e-03 +1.092380e-04 -1.670060e-02 -6.600099e-03 +4.953854e-02 -2.301976e-02 +2.163129e-01 +4.706321e-02
72.104938 +2.193552e-01 +4.099394e-02 +4.192058e-02 -3.556921e-02 -1.678449e-02 -6.390735e-03 +2.149648e-03 -4.673846e-04
         +4.192058e-02 -3.556921e-02 +2.193552e-01 +4.099394e-02 +2.149648e-03 -4.673846e-04 -1.678449e-02 -6.390735e-03
         -1.678449e-02 -6.390735e-03 +2.149648e-03 -4.673846e-04 +2.193552e-01 +4.099394e-02 +4.192058e-02 -3.556921e-02
         +2.149648e-03 -4.673846e-04 -1.678449e-02 -6.390735e-03 +4.192058e-02 -3.556921e-02 +2.193552e-01 +4.099394e-02
72.204875 +2.219714e-01 +3.472916e-02 +3.117053e-02 -4.570459e-02 -1.686576e-02 -6.180303e-03 +1.951918e-03 -1.010789e-03
         +3.117053e-02 -4.570459e-02 +2.219714e-01 +3.472916e-02 +1.951918e-03 -1.010789e-03 -1.686576e-02 -6.180303e-03
         -1.686576e-02 -6.180303e-03 +1.951918e-03 -1.010789e-03 +2.219714e-01 +3.472916e-02 +3.117053e-02 -4.570459e-02
         +1.951918e-03 -1.010789e-03 -1.686576e-02 -6.180303e-03 +3.117053e-02 -4.570459e-02 +2.219714e-01 +3.472916e-02
72.304812 +2.241490e-01 +2.829877e-02 +1.803044e-02 -5.265807e-02 -1.694438e-02 -5.968835e-03 +1.619633e-03 -1.483478e-03
         +1.803044e-02 -5.265807e-02 +2.241490e-01 +2.829877e-02 +1.619633e-03 -1.483478e-03 -1.694438e-02 -5.968835e-03
         -1.694438e-02 -5.968835e-03 +1.619633e-03 -1.483478e-03 +2.241490e-01 +2.829877e-02 +1.803044e-02 -5.265807e-02
         +1.619633e-03 -1.483478e-03 -1.694438e-02 -5.968835e-03 +1.803044e-02 -5.265807e-02 +2.241490e-01 +2.829877e-02
72.404750 +2.258776e-01 +2.173341e-02 +3.426437e-03 -5.588478e-02 -1.702034e-02 -5.756365e-03 +1.175970e-03 -1.852904e-03
         +3.426437e-03 -5.588478e-02 +2.258776e-01 +2.173341e-02 +1.175970e-03 -1.852904e-03 -1.702034e-02 -5.756365e-03
         -1.702034e-02 -5.756365e-03 +1.175970e-03 -1.852904e-03 +2.258776e-01 +2.173341e-02 +3.426437e-03 -5.588478e-02
         +1.175970e-03 -1.852904e-03 -1.702034e-02 -5.756365e-03 +3.426437e-03 -5.588478e-02 +2.258776e-01 +2.173341e-02
72.504688 +2.271490e-01 +1.506441e-02 -1.159714e-02 -5.510562e-02 -1.709363e-02 -5.542927e-03 +6.517656e-04 -2.093705e-03
         -1.159714e-02 -5.510562e-02 +2.271490e-01 +1.506441e-02 +6.517656e-04 -2.093705e-03 -1.709363e-02 -5.542927e-03
         -1.709363e-02 -5.542927e-03 +6.517656e-04 -2.093705e-03 +2.271490e-01 +1.506441e-02 -1.159714e-02 -5.510562e-02
         +6.517656e-04 -2.093705e-03 -1.709363e-02 -5.542927e-03 -1.159714e-02 -5.510562e-02 +2.271490e-01 +1.506441e-02
72.604625 +2.279570e-01 +8.323568e-03 -2.595306e-02 -5.033097e-02 -1.716424e-02 -5.328554e-03 +8.337153e-05 -2.189448e-03
         -2.595306e-02 -5.033097e-02 +2.279570e-01 +8.323568e-03 +8.337153e-05 -2.189448e-03 -1.716424e-02 -5.328554e-03
         -1.716424e-02 -5.328554e-03 +8.337153e-05 -2.189448e-03 +2.279570e-01 +8.323568e-03 -2.595306e-02 -5.033097e-02
         +8.337153e-05 -2.189448e-03 -1.716424e-02 -5.328554e-03 -2.595306e-02 -5.033097e-02 +2.279570e-01 +8.323568e-03
72.704562 +2.282979e-01 +1.543028e-03 -3.859058e-02 -4.186319e-02 -1.723215e-02 -5.113279e-03 -4.898649e-04 -2.133754e-03
         -3.859058e-02 -4.186319e-02 +2.282979e-01 +1.543028e-03 -4.898649e-04 -2.133754e-03 -1.723215e-02 -5.113279e-03
         -1.723215e-02 -5.113279e-03 -4.898649e-04 -2.133754e-03 +2.282979e-01 +1.543028e-03 -3.859058e-02 -4.186319e-02
         -4.898649e-04 -2.133754e-03 -1.723215e-02 -5.113279e-03 -3.859058e-02 -4.186319e-02 +2.282979e-01 +1.543028e-03
72.804500 +2.281700e-01 -5.244870e-03 -4.857308e-02 -3.027763e-02 -1.729736e-02 -4.897138e-03 -1.028326e-03 -1.930714e-03
         -4.857308e-02 -3.027763e-02 +2.281700e-01 -5.244870e-03 -1.028326e-03 -1.930714e-03 -1.729736e-02 -4.897138e-03
         -1.729736e-02 -4.897138e-03 -1.028326e-03 -1.930714e-03 +2.281700e-01 -5.244870e-03 -4.857308e-02 -3.027763e-02
         -1.028326e-03 -1.930714e-03 -1.729736e-02 -4.897138e-03 -4.857308e-02 -3.027763e-02 +2.281700e-01 -5.244870e-03
72.904438 +2.275739e-01 -1.200776e-02 -5.514798e-02 -1.638323e-02 -1.735985e-02 -4.680163e-03 -1.494860e-03 -1.594597e-03
         -5.514798e-02 -1.638323e-02 +2.275739e-01 -1.200776e-02 -1.494860e-03 -1.594597e-03 -1.735985e-02 -4.680163e-03
         -1.735985e-02 -4.680163e-03 -1.494860e-03 -1.594597e-03 +2.275739e-01 -1.200776e-02 -5.514798e-02 -1.638323e-02
         -1.494860e-03 -1.594597e-03 -1.735985e-02 -4.680163e-03 -5.514798e-02 -1.638323e-02 +2.275739e-01 -1.200776e-02
73.004375 +2.265125e-01 -1.871338e-02 -5.780380e-02 -1.165481e-03 -1.741962e-02 -4.462390e-03 -1.857346e-03 -1.148845e-03
         -5.780380e-02 -1.165481e-03 +2.265125e-01 -1.871338e-02 -1.857346e-03 -1.148845e-03 -1.741962e-02 -4.462390e-03
         -1.741962e-02 -4.462390e-03 -1.857346e-03 -1.148845e-03 +2.265125e-01 -1.871338e-02 -5.780380e-02 -1.165481e-03
         -1.857346e-03 -1.148845e-03 -1.741962e-02 -4.462390e-03 -5.780380e-02 -1.165481e-03 +2.265125e-01 -1.871338e-02
73.104313 +2.249908e-01 -2.532975e-02 -5.630996e-02 +1.428417e-02 -1.747664e-02 -4.243852e-03 -2.090907e-03 -6.244374e-04
         -5.630996e-02 +1.428417e-02 +2.249908e-01 -2.532975e-02 -2.090907e-03 -6.244374e-04 -1.747664e-02 -4.243852e-03
         -1.747664e-02 -4.243852e-03 -2.090907e-03 -6.244374e-04 +2.249908e-01 -2.532975e-02 -5.630996e-02 +1.428417e-02
         -2.090907e-03 -6.244374e-04 -1.747664e-02 -4.243852e-03 -5.630996e-02 +1.428417e-02 +2.249908e-01 -2.532975e-02
73.204250 +2.230162e-01 -3.182533e-02 -5.073623e-02 +2.884737e-02 -1.753092e-02 -4.024585e-03 -2.179614e-03 -5.773758e-05
         -5.073623e-02 +2.884737e-02 +2.230162e-01 -3.182533e-02 -2.179614e-03 -5.773758e-05 -1.753092e-02 -4.024585e-03
         -1.753092e-02 -4.024585e-03 -2.179614e-03 -5.773758e-05 +2.230162e-01 -3.182533e-02 -5.073623e-02 +2.884737e-02
         -2.179614e-03 -5.773758e-05 -1.753092e-02 -4.024585e-03 -5.073623e-02 +2.884737e-02 +2.230162e-01 -3.182533e-02
73.304187 +2.205979e-01 -3.816913e-02 -4.145020e-02 +4.146053e-02 -1.758244e-02 -3.804622e-03 -2.117573e-03 +5.120267e-04
         -4.145020e-02 +4.146053e-02 +2.205979e-01 -3.816913e-02 -2.117573e-03 +5.120267e-04 -1.758244e-02 -3.804622e-03
         -1.758244e-02 -3.804622e-03 -2.117573e-03 +5.120267e-04 +2.205979e-01 -3.816913e-02 -4.145020e-02 +4.146053e-02
         -2.117573e-03 +5.120267e-04 -1.758244e-02 -3.804622e-03 -4.145020e-02 +4.146053e-02 +2.205979e-01 -3.816913e-02
73.404125 +2.177475e-01 -4.433090e-02 -2.909273e-02 +5.119310e-02 -1.763119e-02 -3.583999e-03 -1.909317e-03 +1.045481e-03
         -2.909273e-02 +5.119310e-02 +2.177475e-01 -4.433090e-02 -1.909317e-03 +1.045481e-03 -1.763119e-02 -3.583999e-03
         -1.763119e-02 -3.583999e-03 -1.909317e-03 +1.045481e-03 +2.177475e-01 -4.433090e-02 -2.909273e-02 +5.119310e-02
         -1.909317e-03 +1.045481e-03 -1.763119e-02 -3.583999e-03 -2.909273e-02 +5.119310e-02 +2.177475e-01 -4.433090e-02
73.504063 +2.144787e-01 -5.028126e-02 -1.453323e-02 +5.731665e-02 -1.767717e-02 -3.362749e-03 -1.569475e-03 +1.505822e-03
         -1.453323e-02 +5.731665e-02 +2.144787e-01 -5.028126e-02 -1.569475e-03 +1.505822e-03 -1.767717e-02 -3.362749e-03
         -1.767717e-02 -3.362749e-03 -1.569475e-03 +1.505822e-03 +2.144787e-01 -5.028126e-02 -1.453323e-02 +5.731665e-02
         -1.569475e-03 +1.505822e-03 -1.767717e-02 -3.362749e-03 -1.453323e-02 +5.731665e-02 +2.144787e-01 -5.028126e-02
73.604000 +2.108070e-01 -5.599182e-02 +1.192216e-03 +5.935956e-02 -1.772037e-02 -3.140910e-03 -1.121747e-03 +1.861363e-03
         +1.192216e-03 +5.935956e-02 +2.108070e-01 -5.599182e-02 -1.121747e-03 +1.861363e-03 -1.772037e-02 -3.140910e-03
         -1.772037e-02 -3.140910e-03 -1.121747e-03 +1.861363e-03 +2.108070e-01 -5.599182e-02 +1.192216e-03 +5.935956e-02
         -1.121747e-03 +1.861363e-03 -1.772037e-02 -3.140910e-03 +1.192216e-03 +5.935956e-02 +2.108070e-01 -5.599182e-02
73.703937 +2.067499e-01 -6.143536e-02 +1.695535e-02 +5.714313e-02 -1.776078e-02 -2.918514e-03 -5.972465e-04 +2.087706e-03
         +1.695535e-02 +5.714313e-02 +2.067499e-01 -6.143536e-02 -5.972465e-04 +2.087706e-03 -1.776078e-02 -2.918514e-03
         -1.776078e-02 -2.918514e-03 -5.972465e-04 +2.087706e-03 +2.067499e-01 -6.143536e-02 +1.695535e-02 +5.714313e-02
         -5.972465e-04 +2.087706e-03 -1.776078e-02 -2.918514e-03 +1.695535e-02 +5.714313e-02 +2.067499e-01 -6.143536e-02
73.803875 +2.023268e-01 -6.658591e-02 +3.161742e-02 +5.079654e-02 -1.779839e-02 -2.695598e-03 -3.234172e-05 +2.169426e-03
         +3.161742e-02 +5.079654e-02 +2.023268e-01 -6.658591e-02 -3.234172e-05 +2.169426e-03 -1.779839e-02 -2.695598e-03
         -1.779839e-02 -2.695598e-03 -3.234172e-05 +2.169426e-03 +2.023268e-01 -6.658591e-02 +3.161742e-02 +5.079654e-02
         -3.234172e-05 +2.169426e-03 -1.779839e-02 -2.695598e-03 +3.161742e-02 +5.079654e-02 +2.023268e-01 -6.658591e-02
73.903813 +1.975588e-01 -7.141892e-02 +4.411206e-02 +4.074927e-02 -1.783320e-02 -2.472197e-03 +5.338666e-04 +2.101113e-03
         +4.411206e-02 +4.074927e-02 +1.975588e-01 -7.141892e-02 +5.338666e-04 +2.101113e-03 -1.783320e-02 -2.472197e-03
         -1.783320e-02 -2.472197e-03 +5.338666e-04 +2.101113e-03 +1.975588e-01 -7.141892e-02 +4.411206e-02 +4.074927e-02
         +5.338666e-04 +2.101113e-03 -1.783320e-02 -2.472197e-03 +4.411206e-02 +4.074927e-02 +1.975588e-01 -7.141892e-02
74.003750 +1.924686e-01 -7.591132e-02 +5.352330e-02 +2.770152e-02 -1.786519e-02 -2.248346e-03 +1.062252e-03 +1.887735e-03
         +5.352330e-02 +2.770152e-02 +1.924686e-01 -7.591132e-02 +1.062252e-03 +1.887735e-03 -1.786519e-02 -2.248346e-03
         -1.786519e-02 -2.248346e-03 +1.062252e-03 +1.887735e-03 +1.924686e-01 -7.591132e-02 +5.352330e-02 +2.770152e-02
         +1.062252e-03 +1.887735e-03 -1.786519e-02 -2.248346e-03 +5.352330e-02 +2.770152e-02 +1.924686e-01 -7.591132e-02
74.103688 +1.870805e-01 -8.004170e-02 +5.915288e-02 +1.257476e-02 -1.789437e-02 -2.024081e-03 +1.516367e-03 +1.544276e-03
         +5.915288e-02 +1.257476e-02 +1.870805e-01 -8.004170e-02 +1.516367e-03 +1.544276e-03 -1.789437e-02 -2.024081e-03
         -1.789437e-02 -2.024081e-03 +1.516367e-03 +1.544276e-03 +1.870805e-01 -8.004170e-02 +5.915288e-02 +1.257476e-02
         +1.516367e-03 +1.544276e-03 -1.789437e-02 -2.024081e-03 +5.915288e-02 +1.257476e-02 +1.870805e-01 -8.004170e-02
74.203625 +1.814201e-01 -8.379036e-02 +6.057208e-02 -3.554067e-03 -1.792073e-02 -1.799436e-03 +1.864956e-03 +1.094684e-03
         +6.057208e-02 -3.554067e-03 +1.814201e-01 -8.379036e-02 +1.864956e-03 +1.094684e-03 -1.792073e-02 -1.799436e-03
         -1.792073e-02 -1.799436e-03 +1.864956e-03 +1.094684e-03 +1.814201e-01 -8.379036e-02 +6.057208e-02 -3.554067e-03
         +1.864956e-03 +1.094684e-03 -1.792073e-02 -1.799436e-03 +6.057208e-02 -3.554067e-03 +1.814201e-01 -8.379036e-02
74.303562 +1.755146e-01 -8.713942e-02 +5.765398e-02 -1.952994e-02 -1.794427e-02 -1.574449e-03 +2.084107e-03 +5.702000e-04
         +5.765398e-02 -1.952994e-02 +1.755146e-01 -8.713942e-02 +2.084107e-03 +5.702000e-04 -1.794427e-02 -1.574449e-03
         -1.794427e-02 -1.574449e-03 +2.084107e-03 +5.702000e-04 +1.755146e-01 -8.713942e-02 +5.765398e-02 -1.952994e-02
         +2.084107e-03 +5.702000e-04 -1.794427e-02 -1.574449e-03 +5.765398e-02 -1.952994e-02 +1.755146e-01 -8.713942e-02
74.403500 +1.693920e-01 -9.007291e-02 +5.058399e-02 -3.420305e-02 -1.796497e-02 -1.349153e-03 +2.158892e-03 +7.189328e-06
         +5.058399e-02 -3.420305e-02 +1.693920e-01 -9.007291e-02 +2.158892e-03 +7.189328e-06 -1.796497e-02 -1.349153e-03
         -1.796497e-02 -1.349153e-03 +2.158892e-03 +7.189328e-06 +1.693920e-01 -9.007291e-02 +5.058399e-02 -3.420305e-02
         +2.158892e-03 +7.189328e-06 -1.796497e-02 -1.349153e-03 +5.058399e-02 -3.420305e-02 +1.693920e-01 -9.007291e-02
74.503438 +1.630815e-01 -9.257685e-02 +3.984764e-02 -4.651197e-02 -1.798284e-02 -1.123586e-03 +2.084384e-03 -5.553811e-04
         +3.984764e-02 -4.651197e-02 +1.630815e-01 -9.257685e-02 +2.084384e-03 -5.553811e-04 -1.798284e-02 -1.123586e-03
         -1.798284e-02 -1.123586e-03 +2.084384e-03 -5.553811e-04 +1.630815e-01 -9.257685e-02 +3.984764e-02 -4.651197e-02
         +2.084384e-03 -5.553811e-04 -1.798284e-02 -1.123586e-03 +3.984764e-02 -4.651197e-02 +1.630815e-01 -9.257685e-02
74.603375 +1.566132e-01 -9.463928e-02 +2.619667e-02 -5.556069e-02 -1.799787e-02 -8.977818e-04 +1.865979e-03 -1.078640e-03
         +2.619667e-02 -5.556069e-02 +1.566132e-01 -9.463928e-02 +1.865979e-03 -1.078640e-03 -1.799787e-02 -8.977818e-04
         -1.799787e-02 -8.977818e-04 +1.865979e-03 -1.078640e-03 +1.566132e-01 -9.463928e-02 +2.619667e-02 -5.556069e-02
         +1.865979e-03 -1.078640e-03 -1.799787e-02 -8.977818e-04 +2.619667e-02 -5.556069e-02 +1.566132e-01 -9.463928e-02
74.703312 +1.500180e-01 -9.625037e-02 +1.059574e-02 -6.068380e-02 -1.801006e-02 -6.717775e-04 +1.519010e-03 -1.526496e-03
         +1.059574e-02 -6.068380e-02 +1.500180e-01 -9.625037e-02 +1.519010e-03 -1.526496e-03 -1.801006e-02 -6.717775e-04
         -1.801006e-02 -6.717775e-04 +1.519010e-03 -1.526496e-03 +1.500180e-01 -9.625037e-02 +1.059574e-02 -6.068380e-02
         +1.519010e-03 -1.526496e-03 -1.801006e-02 -6.717775e-04 +1.059574e-02 -6.068380e-02 +1.500180e-01 -9.625037e-02
74.803250 +1.433274e-01 -9.740245e-02 -5.846441e-03 -6.149519e-02 -1.801940e-02 -4.456085e-04 +1.067664e-03 -1.868131e-03
         -5.846441e-03 -6.149519e-02 +1.433274e-01 -9.740245e-02 +1.067664e-03 -1.868131e-03 -1.801940e-02 -4.456085e-04
         -1.801940e-02 -4.456085e-04 +1.067664e-03 -1.868131e-03 +1.433274e-01 -9.740245e-02 -5.846441e-03 -6.149519e-02
         +1.067664e-03 -1.868131e-03 -1.801940e-02 -4.456085e-04 -5.846441e-03 -6.149519e-02 +1.433274e-01 -9.740245e-02
74.903188 +1.365732e-01 -9.809000e-02 -2.195636e-02 -5.791670e-02 -1.802590e-02 -2.193106e-04 +5.433049e-04 -2.080116e-03
         -2.195636e-02 -5.791670e-02 +1.365732e-01 -9.809000e-02 +5.433049e-04 -2.080116e-03 -1.802590e-02 -2.193106e-04
         -1.802590e-02 -2.193106e-04 +5.433049e-04 -2.080116e-03 +1.365732e-01 -9.809000e-02 -2.195636e-02 -5.791670e-02
         +5.433049e-04 -2.080116e-03 -1.802590e-02 -2.193106e-04 -2.195636e-02 -5.791670e-02 +1.365732e-01 -9.809000e-02
75.003125 +1.297877e-01 -9.830977e-02 -3.657991e-02 -5.018462e-02 -1.802955e-02 +7.080188e-06 -1.771444e-05 -2.148020e-03
         -3.657991e-02 -5.018462e-02 +1.297877e-01 -9.830977e-02 -1.771444e-05 -2.148020e-03 -1.802955e-02 +7.080188e-06
         -1.802955e-02 +7.080188e-06 -1.771444e-05 -2.148020e-03 +1.297877e-01 -9.830977e-02 -3.657991e-02 -5.018462e-02
         -1.771444e-05 -2.148020e-03 -1.802955e-02 +7.080188e-06 -3.657991e-02 -5.018462e-02 +1.297877e-01 -9.830977e-02
75.103063 +1.230031e-01 -9.806070e-02 -4.866524e-02 -3.883359e-02 -1.803035e-02 +2.335280e-04 -5.765674e-04 -2.067394e-03
         -4.866524e-02 -3.883359e-02 +1.230031e-01 -9.806070e-02 -5.765674e-04 -2.067394e-03 -1.803035e-02 +2.335280e-04
         -1.803035e-02 +2.335280e-04 -5.765674e-04 -2.067394e-03 +1.230031e-01 -9.806070e-02 -4.866524e-02 -3.883359e-02
         -5.765674e-04 -2.067394e-03 -1.803035e-02 +2.335280e-04 -4.866524e-02 -3.883359e-02 +1.230031e-01 -9.806070e-02
75.203000 +1.162520e-01 -9.734397e-02 -5.733840e-02 -2.465904e-02 -1.802830e-02 +4.599970e-04 -1.094643e-03 -1.844057e-03
         -5.733840e-02 -2.465904e-02 +1.162520e-01 -9.734397e-02 -1.094643e-03 -1.844057e-03 -1.802830e-02 +4.599970e-04
         -1.802830e-02 +4.599970e-04 -1.094643e-03 -1.844057e-03 +1.162520e-01 -9.734397e-02 -5.733840e-02 -2.465904e-02
         -1.094643e-03 -1.844057e-03 -1.802830e-02 +4.599970e-04 -5.733840e-02 -2.465904e-02 +1.162520e-01 -9.734397e-02
75.302937 +1.095664e-01 -9.616300e-02 -6.196638e-02 -8.660942e-03 -1.802340e-02 +6.864511e-04 -1.536211e-03 -1.493684e-03
         -6.196638e-02 -8.660942e-03 +1.095664e-01 -9.616300e-02 -1.536211e-03 -1.493684e-03 -1.802340e-02 +6.864511e-04
         -1.802340e-02 +6.864511e-04 -1.536211e-03 -1.493684e-03 +1.095664e-01 -9.616300e-02 -6.196638e-02 -8.660942e-03
         -1.536211e-03 -1.493684e-03 -1.802340e-02 +6.864511e-04 -6.196638e-02 -8.660942e-03 +1.095664e-01 -9.616300e-02
75.402875 +1.029782e-01 -9.452343e-02 -6.220289e-02 +8.027262e-03 -1.801566e-02 +9.128544e-04 -1.870891e-03 -1.040696e-03
         -6.220289e-02 +8.027262e-03 +1.029782e-01 -9.452343e-02 -1.870891e-03 -1.040696e-03 -1.801566e-02 +9.128544e-04
         -1.801566e-02 +9.128544e-04 -1.870891e-03 -1.040696e-03 +1.029782e-01 -9.452343e-02 -6.220289e-02 +8.027262e-03
         -1.870891e-03 -1.040696e-03 -1.801566e-02 +9.128544e-04 -6.220289e-02 +8.027262e-03 +1.029782e-01 -9.452343e-02
75.502812 +9.651893e-02 -9.243308e-02 -5.801380e-02 +2.421924e-02 -1.800506e-02 +1.139171e-03 -2.075738e-03 -5.165680e-04
         -5.801380e-02 +2.421924e-02 +9.651893e-02 -9.243308e-02 -2.075738e-03 -5.165680e-04 -1.800506e-02 +1.139171e-03
         -1.800506e-02 +1.139171e-03 -2.075738e-03 -5.165680e-04 +9.651893e-02 -9.243308e-02 -5.801380e-02 +2.421924e-02
         -2.075738e-03 -5.165680e-04 -1.800506e-02 +1.139171e-03 -5.801380e-02 +2.421924e-02 +9.651893e-02 -9.243308e-02
75.602750 +9.021932e-02 -8.990191e-02 -4.968026e-02 +3.876029e-02 -1.799161e-02 +1.365365e-03 -2.136816e-03 +4.236462e-05
         -4.968026e-02 +3.876029e-02 +9.021932e-02 -8.990191e-02 -2.136816e-03 +4.236462e-05 -1.799161e-02 +1.365365e-03
         -1.799161e-02 +1.365365e-03 -2.136816e-03 +4.236462e-05 +9.021932e-02 -8.990191e-02 -4.968026e-02 +3.876029e-02
         -2.136816e-03 +4.236462e-05 -1.799161e-02 +1.365365e-03 -4.968026e-02 +3.876029e-02 +9.021932e-02 -8.990191e-02
75.702687 +8.410943e-02 -8.694200e-02 -3.777933e-02 +5.060966e-02 -1.797532e-02 +1.591400e-03 -2.050150e-03 +5.974226e-04
         -3.777933e-02 +5.060966e-02 +8.410943e-02 -8.694200e-02 -2.050150e-03 +5.974226e-04 -1.797532e-02 +1.591400e-03
         -1.797532e-02 +1.591400e-03 -2.050150e-03 +5.974226e-04 +8.410943e-02 -8.694200e-02 -3.777933e-02 +5.060966e-02
         -2.050150e-03 +5.974226e-04 -1.797532e-02 +1.591400e-03 -3.777933e-02 +5.060966e-02 +8.410943e-02 -8.694200e-02
75.802625 +7.821838e-02 -8.356746e-02 -2.314364e-02 +5.891485e-02 -1.795618e-02 +1.817241e-03 -1.821978e-03 +1.110260e-03
         -2.314364e-02 +5.891485e-02 +7.821838e-02 -8.356746e-02 -1.821978e-03 +1.110260e-03 -1.795618e-02 +1.817241e-03
         -1.795618e-02 +1.817241e-03 -1.821978e-03 +1.110260e-03 +7.821838e-02 -8.356746e-02 -2.314364e-02 +5.891485e-02
         -1.821978e-03 +1.110260e-03 -1.795618e-02 +1.817241e-03 -2.314364e-02 +5.891485e-02 +7.821838e-02 -8.356746e-02
75.902563 +7.257429e-02 -7.979438e-02 -6.802702e-03 +6.307267e-02 -1.793419e-02 +2.042852e-03 -1.468307e-03 +1.545513e-03
         -6.802702e-03 +6.307267e-02 +7.257429e-02 -7.979438e-02 -1.468307e-03 +1.545513e-03 -1.793419e-02 +2.042852e-03
         -1.793419e-02 +2.042852e-03 -1.468307e-03 +1.545513e-03 +7.257429e-02 -7.979438e-02 -6.802702e-03 +6.307267e-02
         -1.468307e-03 +1.545513e-03 -1.793419e-02 +2.042852e-03 -6.802702e-03 +6.307267e-02 +7.257429e-02 -7.979438e-02
76.002500 +6.720406e-02 -7.564077e-02 +1.008973e-02 +6.277258e-02 -1.790937e-02 +2.268196e-03 -1.013787e-03 +1.873240e-03
         +1.008973e-02 +6.277258e-02 +6.720406e-02 -7.564077e-02 -1.013787e-03 +1.873240e-03 -1.790937e-02 +2.268196e-03
         -1.790937e-02 +2.268196e-03 -1.013787e-03 +1.873240e-03 +6.720406e-02 -7.564077e-02 +1.008973e-02 +6.277258e-02
         -1.013787e-03 +1.873240e-03 -1.790937e-02 +2.268196e-03 +1.008973e-02 +6.277258e-02 +6.720406e-02 -7.564077e-02
76.102438 +6.213330e-02 -7.112642e-02 +2.633725e-02 +5.801940e-02 -1.788171e-02 +2.493238e-03 -4.899957e-04 +2.070979e-03
         +2.633725e-02 +5.801940e-02 +6.213330e-02 -7.112642e-02 -4.899957e-04 +2.070979e-03 -1.788171e-02 +2.493238e-03
         -1.788171e-02 +2.493238e-03 -4.899957e-04 +2.070979e-03 +6.213330e-02 -7.112642e-02 +2.633725e-02 +5.801940e-02
         -4.899957e-04 +2.070979e-03 -1.788171e-02 +2.493238e-03 +2.633725e-02 +5.801940e-02 +6.213330e-02 -7.112642e-02
76.202375 +5.738620e-02 -6.627286e-02 +4.078545e-02 +4.913370e-02 -1.785122e-02 +2.717942e-03 +6.675648e-05 +2.125289e-03
         +4.078545e-02 +4.913370e-02 +5.738620e-02 -6.627286e-02 +6.675648e-05 +2.125289e-03 -1.785122e-02 +2.717942e-03
         -1.785122e-02 +2.717942e-03 +6.675648e-05 +2.125289e-03 +5.738620e-02 -6.627286e-02 +4.078545e-02 +4.913370e-02
         +6.675648e-05 +2.125289e-03 -1.785122e-02 +2.717942e-03 +4.078545e-02 +4.913370e-02 +5.738620e-02 -6.627286e-02
76.302312 +5.298540e-02 -6.110325e-02 +5.240385e-02 +3.672984e-02 -1.781789e-02 +2.942273e-03 +6.179440e-04 +2.032662e-03
         +5.240385e-02 +3.672984e-02 +5.298540e-02 -6.110325e-02 +6.179440e-04 +2.032662e-03 -1.781789e-02 +2.942273e-03
         -1.781789e-02 +2.942273e-03 +6.179440e-04 +2.032662e-03 +5.298540e-02 -6.110325e-02 +5.240385e-02 +3.672984e-02
         +6.179440e-04 +2.032662e-03 -1.781789e-02 +2.942273e-03 +5.240385e-02 +3.672984e-02 +5.298540e-02 -6.110325e-02
76.402250 +4.895188e-02 -5.564224e-02 +6.035903e-02 +2.167323e-02 -1.778174e-02 +3.166194e-03 +1.125492e-03 +1.799751e-03
         +6.035903e-02 +2.167323e-02 +4.895188e-02 -5.564224e-02 +1.125492e-03 +1.799751e-03 -1.778174e-02 +3.166194e-03
         -1.778174e-02 +3.166194e-03 +1.125492e-03 +1.799751e-03 +4.895188e-02 -5.564224e-02 +6.035903e-02 +2.167323e-02
         +1.125492e-03 +1.799751e-03 -1.778174e-02 +3.166194e-03 +6.035903e-02 +2.167323e-02 +4.895188e-02 -5.564224e-02
76.502187 +4.530489e-02 -4.991587e-02 +6.407411e-02 +5.019785e-03 -1.774278e-02 +3.389671e-03 +1.554405e-03 +1.442888e-03
         +6.407411e-02 +5.019785e-03 +4.530489e-02 -4.991587e-02 +1.554405e-03 +1.442888e-03 -1.774278e-02 +3.389671e-03
         -1.774278e-02 +3.389671e-03 +1.554405e-03 +1.442888e-03 +4.530489e-02 -4.991587e-02 +6.407411e-02 +5.019785e-03
         +1.554405e-03 +1.442888e-03 -1.774278e-02 +3.389671e-03 +6.407411e-02 +5.019785e-03 +4.530489e-02 -4.991587e-02
76.602125 +4.206180e-02 -4.395145e-02 +6.327016e-02 -1.205817e-02 -1.770100e-02 +3.612667e-03 +1.875182e-03 +9.869446e-04
         +6.327016e-02 -1.205817e-02 +4.206180e-02 -4.395145e-02 +1.875182e-03 +9.869446e-04 -1.770100e-02 +3.612667e-03
         -1.770100e-02 +3.612667e-03 +1.875182e-03 +9.869446e-04 +4.206180e-02 -4.395145e-02 +6.327016e-02 -1.205817e-02
         +1.875182e-03 +9.869446e-04 -1.770100e-02 +3.612667e-03 +6.327016e-02 -1.205817e-02 +4.206180e-02 -4.395145e-02
76.702062 +3.923810e-02 -3.777742e-02 +5.798674e-02 -2.835437e-02 -1.765641e-02 +3.835147e-03 +2.065846e-03 +4.635944e-04
         +5.798674e-02 -2.835437e-02 +3.923810e-02 -3.777742e-02 +2.065846e-03 +4.635944e-04 -1.765641e-02 +3.835147e-03
         -1.765641e-02 +3.835147e-03 +2.065846e-03 +4.635944e-04 +3.923810e-02 -3.777742e-02 +5.798674e-02 -2.835437e-02
         +2.065846e-03 +4.635944e-04 -1.765641e-02 +3.835147e-03 +5.798674e-02 -2.835437e-02 +3.923810e-02 -3.777742e-02
76.802000 +3.684724e-02 -3.142323e-02 +4.858004e-02 -4.271357e-02 -1.760902e-02 +4.057076e-03 +2.113445e-03 -9.088547e-05
         +4.858004e-02 -4.271357e-02 +3.684724e-02 -3.142323e-02 +2.113445e-03 -9.088547e-05 -1.760902e-02 +4.057076e-03
         -1.760902e-02 +4.057076e-03 +2.113445e-03 -9.088547e-05 +3.684724e-02 -3.142323e-02 +4.858004e-02 -4.271357e-02
         +2.113445e-03 -9.088547e-05 -1.760902e-02 +4.057076e-03 +4.858004e-02 -4.271357e-02 +3.684724e-02 -3.142323e-02
76.901938 +3.490063e-02 -2.491918e-02 +3.569870e-02 -5.411327e-02 -1.755883e-02 +4.278418e-03 +2.014938e-03 -6.381292e-04
         +3.569870e-02 -5.411327e-02 +3.490063e-02 -2.491918e-02 +2.014938e-03 -6.381292e-04 -1.755883e-02 +4.278418e-03
         -1.755883e-02 +4.278418e-03 +2.014938e-03 -6.381292e-04 +3.490063e-02 -2.491918e-02 +3.569870e-02 -5.411327e-02
         +2.014938e-03 -6.381292e-04 -1.755883e-02 +4.278418e-03 +3.569870e-02 -5.411327e-02 +3.490063e-02 -2.491918e-02
77.001875 +3.340755e-02 -1.829630e-02 +2.023903e-02 -6.173614e-02 -1.750586e-02 +4.499138e-03 +1.777384e-03 -1.140337e-03
         +2.023903e-02 -6.173614e-02 +3.340755e-02 -1.829630e-02 +1.777384e-03 -1.140337e-03 -1.750586e-02 +4.499138e-03
         -1.750586e-02 +4.499138e-03 +1.777384e-03 -1.140337e-03 +3.340755e-02 -1.829630e-02 +2.023903e-02 -6.173614e-02
         +1.777384e-03 -1.140337e-03 -1.750586e-02 +4.499138e-03 +2.023903e-02 -6.173614e-02 +3.340755e-02 -1.829630e-02
77.101813 +3.237512e-02 -1.158616e-02 +3.282662e-03 -6.502835e-02 -1.745011e-02 +4.719200e-03 +1.417436e-03 -1.562888e-03
         +3.282662e-03 -6.502835e-02 +3.237512e-02 -1.158616e-02 +1.417436e-03 -1.562888e-03 -1.745011e-02 +4.719200e-03
         -1.745011e-02 +4.719200e-03 +1.417436e-03 -1.562888e-03 +3.237512e-02 -1.158616e-02 +3.282662e-03 -6.502835e-02
         +1.417436e-03 -1.562888e-03 -1.745011e-02 +4.719200e-03 +3.282662e-03 -6.502835e-02 +3.237512e-02 -1.158616e-02
77.201750 +3.180827e-02 -4.820758e-03 -1.397897e-02 -6.373950e-02 -1.739158e-02 +4.938571e-03 +9.601768e-04 -1.876722e-03
         -1.397897e-02 -6.373950e-02 +3.180827e-02 -4.820758e-03 +9.601768e-04 -1.876722e-03 -1.739158e-02 +4.938571e-03
         -1.739158e-02 +4.938571e-03 +9.601768e-04 -1.876722e-03 +3.180827e-02 -4.820758e-03 -1.397897e-02 -6.373950e-02
         +9.601768e-04 -1.876722e-03 -1.739158e-02 +4.938571e-03 -1.397897e-02 -6.373950e-02 +3.180827e-02 -4.820758e-03
77.301687 +3.170969e-02 +1.967629e-03 -3.032817e-02 -5.794134e-02 -1.733029e-02 +5.157214e-03 +4.373702e-04 -2.060344e-03
         -3.032817e-02 -5.794134e-02 +3.170969e-02 +1.967629e-03 +4.373702e-04 -2.060344e-03 -1.733029e-02 +5.157214e-03
         -1.733029e-02 +5.157214e-03 +4.373702e-04 -2.060344e-03 +3.170969e-02 +1.967629e-03 -3.032817e-02 -5.794134e-02
         +4.373702e-04 -2.060344e-03 -1.733029e-02 +5.157214e-03 -3.032817e-02 -5.794134e-02 +3.170969e-02 +1.967629e-03
77.401625 +3.207987e-02 +8.746633e-03 -4.460661e-02 -4.802402e-02 -1.726625e-02 +5.375095e-03 -1.147472e-04 -2.101292e-03
         -4.460661e-02 -4.802402e-02 +3.207987e-02 +8.746633e-03 -1.147472e-04 -2.101292e-03 -1.726625e-02 +5.375095e-03
         -1.726625e-02 +5.375095e-03 -1.147472e-04 -2.101292e-03 +3.207987e-02 +8.746633e-03 -4.460661e-02 -4.802402e-02
         -1.147472e-04 -2.101292e-03 -1.726625e-02 +5.375095e-03 -4.460661e-02 -4.802402e-02 +3.207987e-02 +8.746633e-03
77.501562 +3.291702e-02 +1.548392e-02 -5.579716e-02 -3.466982e-02 -1.719947e-02 +5.592180e-03 -6.579759e-04 -1.996986e-03
         -5.579716e-02 -3.466982e-02 +3.291702e-02 +1.548392e-02 -6.579759e-04 -1.996986e-03 -1.719947e-02 +5.592180e-03
         -1.719947e-02 +5.592180e-03 -6.579759e-04 -1.996986e-03 +3.291702e-02 +1.548392e-02 -5.579716e-02 -3.466982e-02
         -6.579759e-04 -1.996986e-03 -1.719947e-02 +5.592180e-03 -5.579716e-02 -3.466982e-02 +3.291702e-02 +1.548392e-02
77.601500 +3.421717e-02 +2.214737e-02 -6.309602e-02 -1.880638e-02 -1.712995e-02 +5.808433e-03 -1.154797e-03 -1.754885e-03
         -6.309602e-02 -1.880638e-02 +3.421717e-02 +2.214737e-02 -1.154797e-03 -1.754885e-03 -1.712995e-02 +5.808433e-03
         -1.712995e-02 +5.808433e-03 -1.154797e-03 -1.754885e-03 +3.421717e-02 +2.214737e-02 -6.309602e-02 -1.880638e-02
         -1.154797e-03 -1.754885e-03 -1.712995e-02 +5.808433e-03 -6.309602e-02 -1.880638e-02 +3.421717e-02 +2.214737e-02
77.701437 +3.597411e-02 +2.870520e-02 -6.597034e-02 -1.542453e-03 -1.705770e-02 +6.023820e-03 -1.570964e-03 -1.391958e-03
         -6.597034e-02 -1.542453e-03 +3.597411e-02 +2.870520e-02 -1.570964e-03 -1.391958e-03 -1.705770e-02 +6.023820e-03
         -1.705770e-02 +6.023820e-03 -1.570964e-03 -1.391958e-03 +3.597411e-02 +2.870520e-02 -6.597034e-02 -1.542453e-03
         -1.570964e-03 -1.391958e-03 -1.705770e-02 +6.023820e-03 -6.597034e-02 -1.542453e-03 +3.597411e-02 +2.870520e-02
77.801375 +3.817946e-02 +3.512613e-02 -6.419688e-02 +1.590937e-02 -1.698275e-02 +6.238307e-03 -1.877863e-03 -9.334908e-04
         -6.419688e-02 +1.590937e-02 +3.817946e-02 +3.512613e-02 -1.877863e-03 -9.334908e-04 -1.698275e-02 +6.238307e-03
         -1.698275e-02 +6.238307e-03 -1.877863e-03 -9.334908e-04 +3.817946e-02 +3.512613e-02 -6.419688e-02 +1.590937e-02
         -1.877863e-03 -9.334908e-04 -1.698275e-02 +6.238307e-03 -6.419688e-02 +1.590937e-02 +3.817946e-02 +3.512613e-02
77.901313 +4.082271e-02 +4.137954e-02 -5.787925e-02 +3.231757e-02 -1.690509e-02 +6.451859e-03 -2.054479e-03 -4.113290e-04
         -5.787925e-02 +3.231757e-02 +4.082271e-02 +4.137954e-02 -2.054479e-03 -4.113290e-04 -1.690509e-02 +6.451859e-03
         -1.690509e-02 +6.451859e-03 -2.054479e-03 -4.113290e-04 +4.082271e-02 +4.137954e-02 -5.787925e-02 +3.231757e-02
         -2.054479e-03 -4.113290e-04 -1.690509e-02 +6.451859e-03 -5.787925e-02 +3.231757e-02 +4.082271e-02 +4.137954e-02
78.001250 +4.389124e-02 +4.743561e-02 -4.744216e-02 +4.651834e-02 -1.682474e-02 +6.664443e-03 -2.088837e-03 +1.383376e-04
         -4.744216e-02 +4.651834e-02 +4.389124e-02 +4.743561e-02 -2.088837e-03 +1.383376e-04 -1.682474e-02 +6.664443e-03
         -1.682474e-02 +6.664443e-03 -2.088837e-03 +1.383376e-04 +4.389124e-02 +4.743561e-02 -4.744216e-02 +4.651834e-02
         -2.088837e-03 +1.383376e-04 -1.682474e-02 +6.664443e-03 -4.744216e-02 +4.651834e-02 +4.389124e-02 +4.743561e-02
78.101188 +4.737043e-02 +5.326547e-02 -3.360315e-02 +5.749795e-02 -1.674171e-02 +6.876024e-03 -1.978814e-03 +6.774821e-04
         -3.360315e-02 +5.749795e-02 +4.737043e-02 +5.326547e-02 -1.978814e-03 +6.774821e-04 -1.674171e-02 +6.876024e-03
         -1.674171e-02 +6.876024e-03 -1.978814e-03 +6.774821e-04 +4.737043e-02 +5.326547e-02 -3.360315e-02 +5.749795e-02
         -1.978814e-03 +6.774821e-04 -1.674171e-02 +6.876024e-03 -3.360315e-02 +5.749795e-02 +4.737043e-02 +5.326547e-02
78.201125 +5.124368e-02 +5.884129e-02 -1.732346e-02 +6.446495e-02 -1.665602e-02 +7.086569e-03 -1.732264e-03 +1.168871e-03
         -1.732346e-02 +6.446495e-02 +5.124368e-02 +5.884129e-02 -1.732264e-03 +1.168871e-03 -1.665602e-02 +7.086569e-03
         -1.665602e-02 +7.086569e-03 -1.732264e-03 +1.168871e-03 +5.124368e-02 +5.884129e-02 -1.732346e-02 +6.446495e-02
         -1.732264e-03 +1.168871e-03 -1.665602e-02 +7.086569e-03 -1.732346e-02 +6.446495e-02 +5.124368e-02 +5.884129e-02
78.301063 +5.549252e-02 +6.413651e-02 +2.583599e-04 +6.690722e-02 -1.656767e-02 +7.296043e-03 -1.366462e-03 +1.578636e-03
         +2.583599e-04 +6.690722e-02 +5.549252e-02 +6.413651e-02 -1.366462e-03 +1.578636e-03 -1.656767e-02 +7.296043e-03
         -1.656767e-02 +7.296043e-03 -1.366462e-03 +1.578636e-03 +5.549252e-02 +6.413651e-02 +2.583599e-04 +6.690722e-02
         -1.366462e-03 +1.578636e-03 -1.656767e-02 +7.296043e-03 +2.583599e-04 +6.690722e-02 +5.549252e-02 +6.413651e-02
78.401000 +6.009669e-02 +6.912585e-02 +1.790586e-02 +6.462956e-02 -1.647669e-02 +7.504415e-03 -9.068936e-04 +1.878610e-03
         +1.790586e-02 +6.462956e-02 +6.009669e-02 +6.912585e-02 -9.068936e-04 +1.878610e-03 -1.647669e-02 +7.504415e-03
         -1.647669e-02 +7.504415e-03 -9.068936e-04 +1.878610e-03 +6.009669e-02 +6.912585e-02 +1.790586e-02 +6.462956e-02
         -9.068936e-04 +1.878610e-03 -1.647669e-02 +7.504415e-03 +1.790586e-02 +6.462956e-02 +6.009669e-02 +6.912585e-02
78.500937 +6.503423e-02 +7.378553e-02 +3.437140e-02 +5.776933e-02 -1.638308e-02 +7.711649e-03 -3.854767e-04 +2.048257e-03
         +3.437140e-02 +5.776933e-02 +6.503423e-02 +7.378553e-02 -3.854767e-04 +2.048257e-03 -1.638308e-02 +7.711649e-03
         -1.638308e-02 +7.711649e-03 -3.854767e-04 +2.048257e-03 +6.503423e-02 +7.378553e-02 +3.437140e-02 +5.776933e-02
         -3.854767e-04 +2.048257e-03 -1.638308e-02 +7.711649e-03 +3.437140e-02 +5.776933e-02 +6.503423e-02 +7.378553e-02
78.600875 +7.028159e-02 +7.809333e-02 +4.848418e-02 +4.678856e-02 -1.628686e-02 +7.917714e-03 +1.616527e-04 +2.076088e-03
         +4.848418e-02 +4.678856e-02 +7.028159e-02 +7.809333e-02 +1.616527e-04 +2.076088e-03 -1.628686e-02 +7.917714e-03
         -1.628686e-02 +7.917714e-03 +1.616527e-04 +2.076088e-03 +7.028159e-02 +7.809333e-02 +4.848418e-02 +4.678856e-02
         +1.616527e-04 +2.076088e-03 -1.628686e-02 +7.917714e-03 +4.848418e-02 +4.678856e-02 +7.028159e-02 +7.809333e-02
78.700812 +7.581375e-02 +8.202869e-02 +5.923344e-02 +3.244330e-02 -1.618804e-02 +8.122576e-03 +6.966459e-04 +1.960430e-03
         +5.923344e-02 +3.244330e-02 +7.581375e-02 +8.202869e-02 +6.966459e-04 +1.960430e-03 -1.618804e-02 +8.122576e-03
         -1.618804e-02 +8.122576e-03 +6.966459e-04 +1.960430e-03 +7.581375e-02 +8.202869e-02 +5.923344e-02 +3.244330e-02
         +6.966459e-04 +1.960430e-03 -1.618804e-02 +8.122576e-03 +5.923344e-02 +3.244330e-02 +7.581375e-02 +8.202869e-02
78.800750 +8.160433e-02 +8.557286e-02 +6.584087e-02 +1.573186e-02 -1.608664e-02 +8.326202e-03 +1.182560e-03 +1.709528e-03
         +6.584087e-02 +1.573186e-02 +8.160433e-02 +8.557286e-02 +1.182560e-03 +1.709528e-03 -1.608664e-02 +8.326202e-03
         -1.608664e-02 +8.326202e-03 +1.182560e-03 +1.709528e-03 +8.160433e-02 +8.557286e-02 +6.584087e-02 +1.573186e-02
         +1.182560e-03 +1.709528e-03 -1.608664e-02 +8.326202e-03 +6.584087e-02 +1.573186e-02 +8.160433e-02 +8.557286e-02
78.900688 +8.762570e-02 +8.870893e-02 +6.781712e-02 -2.174336e-03 -1.598268e-02 +8.528560e-03 +1.585907e-03 +1.340957e-03
         +6.781712e-02 -2.174336e-03 +8.762570e-02 +8.870893e-02 +1.585907e-03 +1.340957e-03 -1.598268e-02 +8.528560e-03
         -1.598268e-02 +8.528560e-03 +1.585907e-03 +1.340957e-03 +8.762570e-02 +8.870893e-02 +6.781712e-02 -2.174336e-03
         +1.585907e-03 +1.340957e-03 -1.598268e-02 +8.528560e-03 +6.781712e-02 -2.174336e-03 +8.762570e-02 +8.870893e-02
79.000625 +9.384916e-02 +9.142195e-02 +6.499820e-02 -2.001266e-02 -1.587616e-02 +8.729618e-03 +1.878967e-03 +8.803923e-04
         +6.499820e-02 -2.001266e-02 +9.384916e-02 +9.142195e-02 +1.878967e-03 +8.803923e-04 -1.587616e-02 +8.729618e-03
         -1.587616e-02 +8.729618e-03 +1.878967e-03 +8.803923e-04 +9.384916e-02 +9.142195e-02 +6.499820e-02 -2.001266e-02
         +1.878967e-03 +8.803923e-04 -1.587616e-02 +8.729618e-03 +6.499820e-02 -2.001266e-02 +9.384916e-02 +9.142195e-02
79.100563 +1.002450e-01 +9.369897e-02 +5.755913e-02 -3.651817e-02 -1.576711e-02 +8.929343e-03 +2.041685e-03 +3.598187e-04
         +5.755913e-02 -3.651817e-02 +1.002450e-01 +9.369897e-02 +2.041685e-03 +3.598187e-04 -1.576711e-02 +8.929343e-03
         -1.576711e-02 +8.929343e-03 +2.041685e-03 +3.598187e-04 +1.002450e-01 +9.369897e-02 +5.755913e-02 -3.651817e-02
         +2.041685e-03 +3.598187e-04 -1.576711e-02 +8.929343e-03 +5.755913e-02 -3.651817e-02 +1.002450e-01 +9.369897e-02
79.200500 +1.067828e-01 +9.552914e-02 +4.600364e-02 -5.051329e-02 -1.565555e-02 +9.127703e-03 +2.063052e-03 -1.846887e-04
         +4.600364e-02 -5.051329e-02 +1.067828e-01 +9.552914e-02 +2.063052e-03 -1.846887e-04 -1.565555e-02 +9.127703e-03
         -1.565555e-02 +9.127703e-03 +2.063052e-03 -1.846887e-04 +1.067828e-01 +9.552914e-02 +4.600364e-02 -5.051329e-02
         +2.063052e-03 -1.846887e-04 -1.565555e-02 +9.127703e-03 +4.600364e-02 -5.051329e-02 +1.067828e-01 +9.552914e-02
79.300438 +1.134313e-01 +9.690373e-02 +3.113050e-02 -6.099199e-02 -1.554148e-02 +9.324666e-03 +1.941843e-03 -7.154654e-04
         +3.113050e-02 -6.099199e-02 +1.134313e-01 +9.690373e-02 +1.941843e-03 -7.154654e-04 -1.554148e-02 +9.324666e-03
         -1.554148e-02 +9.324666e-03 +1.941843e-03 -7.154654e-04 +1.134313e-01 +9.690373e-02 +3.113050e-02 -6.099199e-02
         +1.941843e-03 -7.154654e-04 -1.554148e-02 +9.324666e-03 +3.113050e-02 -6.099199e-02 +1.134313e-01 +9.690373e-02
79.400375 +1.201588e-01 +9.781619e-02 +1.397866e-02 -6.719226e-02 -1.542494e-02 +9.520202e-03 +1.686686e-03 -1.195863e-03
         +1.397866e-02 -6.719226e-02 +1.201588e-01 +9.781619e-02 +1.686686e-03 -1.195863e-03 -1.542494e-02 +9.520202e-03
         -1.542494e-02 +9.520202e-03 +1.686686e-03 -1.195863e-03 +1.201588e-01 +9.781619e-02 +1.397866e-02 -6.719226e-02
         +1.686686e-03 -1.195863e-03 -1.542494e-02 +9.520202e-03 +1.397866e-02 -6.719226e-02 +1.201588e-01 +9.781619e-02
79.500312 +1.269332e-01 +9.826215e-02 -4.245150e-03 -6.865192e-02 -1.530592e-02 +9.714278e-03 +1.315450e-03 -1.592779e-03
         -4.245150e-03 -6.865192e-02 +1.269332e-01 +9.826215e-02 +1.315450e-03 -1.592779e-03 -1.530592e-02 +9.714278e-03
         -1.530592e-02 +9.714278e-03 +1.315450e-03 -1.592779e-03 +1.269332e-01 +9.826215e-02 -4.245150e-03 -6.865192e-02
         +1.315450e-03 -1.592779e-03 -1.530592e-02 +9.714278e-03 -4.245150e-03 -6.865192e-02 +1.269332e-01 +9.826215e-02
79.600250 +1.337223e-01 +9.823951e-02 -2.225117e-02 -6.524332e-02 -1.518447e-02 +9.906864e-03 +8.539937e-04 -1.878939e-03
         -2.225117e-02 -6.524332e-02 +1.337223e-01 +9.823951e-02 +8.539937e-04 -1.878939e-03 -1.518447e-02 +9.906864e-03
         -1.518447e-02 +9.906864e-03 +8.539937e-04 -1.878939e-03 +1.337223e-01 +9.823951e-02 -2.225117e-02 -6.524332e-02
         +8.539937e-04 -1.878939e-03 -1.518447e-02 +9.906864e-03 -2.225117e-02 -6.524332e-02 +1.337223e-01 +9.823951e-02
79.700187 +1.404936e-01 +9.774835e-02 -3.875798e-02 -5.718456e-02 -1.506058e-02 +1.009793e-02 +3.343604e-04 -2.034769e-03
         -3.875798e-02 -5.718456e-02 +1.404936e-01 +9.774835e-02 +3.343604e-04 -2.034769e-03 -1.506058e-02 +1.009793e-02
         -1.506058e-02 +1.009793e-02 +3.343604e-04 -2.034769e-03 +1.404936e-01 +9.774835e-02 -3.875798e-02 -5.718456e-02
         +3.343604e-04 -2.034769e-03 -1.506058e-02 +1.009793e-02 -3.875798e-02 -5.718456e-02 +1.404936e-01 +9.774835e-02
79.800125 +1.472149e-01 +9.679103e-02 -5.258389e-02 -4.502611e-02 -1.493429e-02 +1.028744e-02 -2.074420e-04 -2.049736e-03
         -5.258389e-02 -4.502611e-02 +1.472149e-01 +9.679103e-02 -2.074420e-04 -2.049736e-03 -1.493429e-02 +1.028744e-02
         -1.493429e-02 +1.028744e-02 -2.074420e-04 -2.049736e-03 +1.472149e-01 +9.679103e-02 -5.258389e-02 -4.502611e-02
         -2.074420e-04 -2.049736e-03 -1.493429e-02 +1.028744e-02 -5.258389e-02 -4.502611e-02 +1.472149e-01 +9.679103e-02
79.900063 +1.538541e-01 +9.537212e-02 -6.273185e-02 -2.961358e-02 -1.480561e-02 +1.047537e-02 -7.339393e-04 -1.923059e-03
         -6.273185e-02 -2.961358e-02 +1.538541e-01 +9.537212e-02 -7.339393e-04 -1.923059e-03 -1.480561e-02 +1.047537e-02
         -1.480561e-02 +1.047537e-02 -7.339393e-04 -1.923059e-03 +1.538541e-01 +9.537212e-02 -6.273185e-02 -2.961358e-02
         -7.339393e-04 -1.923059e-03 -1.480561e-02 +1.047537e-02 -6.273185e-02 -2.961358e-02 +1.538541e-01 +9.537212e-02
80.000000 +1.603795e-01 +9.349837e-02 -6.846173e-02 -1.202913e-02 -1.467456e-02 +1.066169e-02 -1.208782e-03 -1.663745e-03
         -6.846173e-02 -1.202913e-02 +1.603795e-01 +9.349837e-02 -1.208782e-03 -1.663745e-03 -1.467456e-02 +1.066169e-02
         -1.467456e-02 +1.066169e-02 -1.208782e-03 -1.663745e-03 +1.603795e-01 +9.349837e-02 -6.846173e-02 -1.202913e-02
         -1.208782e-03 -1.663745e-03 -1.467456e-02 +1.066169e-02 -6.846173e-02 -1.202913e-02 +1.603795e-01 +9.349837e-02
